*SPEF "ieee 1481-1999"
*DESIGN "exact_dadda_no_comp"
*DATE "15:55:25 Sunday October 04, 2026"
*VENDOR "The OpenROAD Project"
*PROGRAM "OpenROAD"
*VERSION "26Q3-1499-g46ab99414e"
*DESIGN_FLOW "NAME_SCOPE LOCAL" "PIN_CAP NONE"
*DIVIDER /
*DELIMITER :
*BUS_DELIMITER []
*T_UNIT 1 NS
*C_UNIT 1 PF
*R_UNIT 1 OHM
*L_UNIT 1 HENRY

*NAME_MAP
*111 A[0]
*261 A[1]
*262 A[2]
*263 A[3]
*264 A[4]
*265 A[5]
*266 A[6]
*267 A[7]
*268 B[0]
*269 B[1]
*270 B[2]
*271 B[3]
*272 B[4]
*273 B[5]
*274 B[6]
*275 B[7]
*276 P[0]
*277 P[10]
*278 P[11]
*279 P[12]
*280 P[13]
*281 P[14]
*282 P[15]
*283 P[1]
*284 P[2]
*285 P[3]
*286 P[4]
*287 P[5]
*288 P[6]
*289 P[7]
*290 P[8]
*291 P[9]
*33 _000_
*34 _001_
*35 _002_
*36 _003_
*37 _004_
*38 _005_
*39 _006_
*40 _007_
*41 _008_
*42 _009_
*43 _010_
*44 _011_
*45 _012_
*46 _013_
*47 _014_
*48 _015_
*49 _016_
*50 _017_
*51 _018_
*52 _019_
*53 _020_
*54 _021_
*55 _022_
*56 _023_
*57 _024_
*58 _025_
*59 _026_
*60 _027_
*61 _028_
*62 _029_
*63 _030_
*64 _031_
*65 _032_
*66 _033_
*67 _034_
*68 _035_
*69 _036_
*70 _037_
*71 _038_
*72 _039_
*73 _040_
*74 _041_
*75 _042_
*76 _043_
*77 _044_
*78 _045_
*79 _046_
*80 _047_
*81 _048_
*82 _049_
*83 _050_
*84 _051_
*85 _052_
*86 _053_
*87 _054_
*88 _055_
*89 _056_
*90 _057_
*91 _058_
*92 _059_
*93 _060_
*94 _061_
*95 _062_
*96 _063_
*97 _064_
*98 _065_
*99 _066_
*100 _067_
*101 _068_
*102 _069_
*103 _070_
*104 _071_
*105 _072_
*106 _073_
*107 _074_
*108 _075_
*109 _076_
*110 _077_
*1 net1
*10 net10
*319 net100
*320 net101
*322 net103
*323 net104
*332 net105
*333 net106
*334 net107
*325 net108
*324 net109
*11 net11
*335 net110
*326 net111
*336 net112
*337 net113
*338 net114
*339 net115
*12 net12
*341 net123
*342 net124
*13 net13
*14 net14
*345 net142
*346 net143
*347 net144
*321 net145
*348 net148
*15 net15
*299 net151
*304 net153
*313 net154
*349 net155
*350 net156
*327 net157
*292 net158
*340 net159
*16 net16
*343 net160
*17 net17
*18 net18
*293 net181
*19 net19
*2 net2
*20 net20
*21 net21
*22 net22
*23 net23
*24 net24
*25 net25
*26 net26
*27 net27
*28 net28
*29 net29
*3 net3
*30 net30
*31 net31
*32 net32
*4 net4
*5 net5
*6 net6
*7 net7
*295 net71
*294 net72
*296 net73
*328 net74
*298 net75
*300 net77
*301 net78
*302 net79
*8 net8
*303 net80
*305 net82
*306 net83
*307 net84
*308 net85
*309 net86
*310 net87
*311 net89
*9 net9
*312 net90
*314 net92
*316 net94
*317 net95
*318 net96
*329 net97
*330 net98
*331 net99
*112 pp\[10\]\[0\]
*113 pp\[11\]\[0\]
*114 pp\[12\]\[0\]
*115 pp\[13\]\[0\]
*116 pp\[14\]\[0\]
*117 pp\[15\]\[0\]
*118 pp\[16\]\[0\]
*119 pp\[17\]\[0\]
*120 pp\[18\]\[0\]
*121 pp\[19\]\[0\]
*122 pp\[1\]\[0\]
*123 pp\[20\]\[0\]
*124 pp\[21\]\[0\]
*125 pp\[22\]\[0\]
*126 pp\[23\]\[0\]
*127 pp\[24\]\[0\]
*128 pp\[25\]\[0\]
*129 pp\[26\]\[0\]
*130 pp\[27\]\[0\]
*131 pp\[28\]\[0\]
*132 pp\[29\]\[0\]
*133 pp\[2\]\[0\]
*134 pp\[30\]\[0\]
*135 pp\[31\]\[0\]
*136 pp\[32\]\[0\]
*137 pp\[33\]\[0\]
*138 pp\[34\]\[0\]
*139 pp\[35\]\[0\]
*140 pp\[36\]\[0\]
*141 pp\[37\]\[0\]
*142 pp\[38\]\[0\]
*143 pp\[39\]\[0\]
*144 pp\[3\]\[0\]
*145 pp\[40\]\[0\]
*146 pp\[41\]\[0\]
*147 pp\[42\]\[0\]
*148 pp\[43\]\[0\]
*149 pp\[44\]\[0\]
*150 pp\[45\]\[0\]
*151 pp\[46\]\[0\]
*152 pp\[47\]\[0\]
*153 pp\[48\]\[0\]
*154 pp\[49\]\[0\]
*155 pp\[4\]\[0\]
*156 pp\[50\]\[0\]
*157 pp\[51\]\[0\]
*158 pp\[52\]\[0\]
*159 pp\[53\]\[0\]
*160 pp\[54\]\[0\]
*161 pp\[55\]\[0\]
*162 pp\[56\]\[0\]
*163 pp\[57\]\[0\]
*164 pp\[58\]\[0\]
*165 pp\[59\]\[0\]
*166 pp\[5\]\[0\]
*167 pp\[60\]\[0\]
*168 pp\[61\]\[0\]
*169 pp\[62\]\[0\]
*170 pp\[63\]\[0\]
*171 pp\[6\]\[0\]
*172 pp\[7\]\[0\]
*173 pp\[8\]\[0\]
*174 pp\[9\]\[0\]
*175 s1_c6_c
*176 s1_c6_ha\.sum
*177 s1_c7_c1
*178 s1_c7_c2
*179 s1_c7_fa\.sum
*180 s1_c7_ha\.sum
*181 s1_c8_c1
*182 s1_c8_c2
*183 s1_c8_fa\.sum
*184 s1_c8_ha\.sum
*185 s1_c9_c
*186 s1_c9_fa\.sum
*187 s2_c10_c1
*188 s2_c10_c2
*189 s2_c10_fa1\.sum
*190 s2_c10_fa2\.sum
*191 s2_c11_c1
*192 s2_c11_fa\.sum
*193 s2_c4_c
*194 s2_c4_ha\.sum
*195 s2_c5_c1
*196 s2_c5_c2
*197 s2_c5_fa\.sum
*198 s2_c5_ha\.sum
*199 s2_c6_c1
*200 s2_c6_c2
*201 s2_c6_fa1\.sum
*202 s2_c6_fa2\.sum
*203 s2_c7_c1
*204 s2_c7_c2
*205 s2_c7_fa1\.sum
*206 s2_c7_fa2\.sum
*207 s2_c8_c1
*208 s2_c8_c2
*209 s2_c8_fa1\.sum
*210 s2_c8_fa2\.sum
*211 s2_c9_c1
*212 s2_c9_c2
*213 s2_c9_fa1\.sum
*214 s2_c9_fa2\.sum
*215 s3_c10_c
*216 s3_c10_fa\.sum
*217 s3_c11_c
*218 s3_c11_fa\.sum
*219 s3_c12_c
*220 s3_c12_fa\.sum
*221 s3_c3_c
*222 s3_c3_ha\.sum
*223 s3_c4_c
*224 s3_c4_fa\.sum
*225 s3_c5_c
*226 s3_c5_fa\.sum
*227 s3_c6_c
*228 s3_c6_fa\.sum
*229 s3_c7_c
*230 s3_c7_fa\.sum
*231 s3_c8_c
*232 s3_c8_fa\.sum
*233 s3_c9_c
*234 s3_c9_fa\.sum
*235 s4_c10_c
*236 s4_c10_fa\.sum
*237 s4_c11_c
*238 s4_c11_fa\.sum
*239 s4_c12_c
*240 s4_c12_fa\.sum
*241 s4_c13_c
*242 s4_c13_fa\.sum
*243 s4_c2_c
*244 s4_c2_ha\.sum
*245 s4_c3_c
*246 s4_c3_fa\.sum
*247 s4_c4_c
*248 s4_c4_fa\.sum
*249 s4_c5_c
*250 s4_c5_fa\.sum
*251 s4_c6_c
*252 s4_c6_fa\.sum
*253 s4_c7_c
*254 s4_c7_fa\.sum
*255 s4_c8_c
*256 s4_c8_fa\.sum
*257 s4_c9_c
*258 s4_c9_fa\.sum
*671 FILLER_0_0
*686 FILLER_0_117
*687 FILLER_0_119
*624 FILLER_0_12
*688 FILLER_0_121
*689 FILLER_0_129
*690 FILLER_0_137
*678 FILLER_0_26
*679 FILLER_0_31
*680 FILLER_0_35
*681 FILLER_0_61
*642 FILLER_0_8
*682 FILLER_0_87
*683 FILLER_0_89
*684 FILLER_0_91
*685 FILLER_0_95
*826 FILLER_10_0
*832 FILLER_10_100
*833 FILLER_10_134
*834 FILLER_10_142
*835 FILLER_10_144
*828 FILLER_10_25
*829 FILLER_10_29
*830 FILLER_10_69
*831 FILLER_10_73
*827 FILLER_10_8
*846 FILLER_11_117
*847 FILLER_11_119
*848 FILLER_11_142
*849 FILLER_11_144
*836 FILLER_11_17
*837 FILLER_11_25
*838 FILLER_11_33
*839 FILLER_11_57
*840 FILLER_11_59
*841 FILLER_11_61
*842 FILLER_11_65
*843 FILLER_11_71
*844 FILLER_11_75
*845 FILLER_11_81
*850 FILLER_12_0
*862 FILLER_12_101
*852 FILLER_12_13
*863 FILLER_12_138
*864 FILLER_12_142
*865 FILLER_12_144
*853 FILLER_12_31
*851 FILLER_12_4
*854 FILLER_12_54
*855 FILLER_12_62
*856 FILLER_12_70
*857 FILLER_12_74
*858 FILLER_12_76
*859 FILLER_12_88
*860 FILLER_12_91
*861 FILLER_12_99
*866 FILLER_13_0
*874 FILLER_13_107
*875 FILLER_13_117
*876 FILLER_13_119
*868 FILLER_13_35
*867 FILLER_13_4
*869 FILLER_13_47
*870 FILLER_13_56
*871 FILLER_13_68
*872 FILLER_13_72
*873 FILLER_13_99
*877 FILLER_14_0
*881 FILLER_14_112
*882 FILLER_14_114
*879 FILLER_14_12
*883 FILLER_14_135
*884 FILLER_14_143
*878 FILLER_14_8
*880 FILLER_14_91
*885 FILLER_15_0
*890 FILLER_15_103
*891 FILLER_15_121
*892 FILLER_15_137
*887 FILLER_15_41
*888 FILLER_15_43
*889 FILLER_15_61
*886 FILLER_15_8
*893 FILLER_16_0
*905 FILLER_16_107
*906 FILLER_16_111
*907 FILLER_16_121
*908 FILLER_16_135
*909 FILLER_16_141
*895 FILLER_16_16
*896 FILLER_16_27
*897 FILLER_16_29
*898 FILLER_16_63
*899 FILLER_16_69
*900 FILLER_16_73
*894 FILLER_16_8
*901 FILLER_16_87
*902 FILLER_16_89
*903 FILLER_16_91
*904 FILLER_16_93
*910 FILLER_17_0
*920 FILLER_17_107
*921 FILLER_17_117
*922 FILLER_17_119
*923 FILLER_17_138
*924 FILLER_17_142
*925 FILLER_17_144
*913 FILLER_17_26
*914 FILLER_17_30
*911 FILLER_17_5
*915 FILLER_17_59
*916 FILLER_17_61
*917 FILLER_17_67
*918 FILLER_17_71
*919 FILLER_17_85
*912 FILLER_17_9
*926 FILLER_18_0
*942 FILLER_18_103
*943 FILLER_18_107
*944 FILLER_18_117
*945 FILLER_18_121
*928 FILLER_18_13
*946 FILLER_18_134
*947 FILLER_18_142
*948 FILLER_18_144
*929 FILLER_18_15
*930 FILLER_18_27
*931 FILLER_18_29
*932 FILLER_18_31
*933 FILLER_18_33
*934 FILLER_18_40
*935 FILLER_18_44
*936 FILLER_18_46
*937 FILLER_18_60
*938 FILLER_18_62
*939 FILLER_18_69
*940 FILLER_18_73
*941 FILLER_18_77
*927 FILLER_18_9
*949 FILLER_19_0
*950 FILLER_19_11
*962 FILLER_19_112
*963 FILLER_19_121
*964 FILLER_19_129
*965 FILLER_19_141
*951 FILLER_19_18
*952 FILLER_19_23
*953 FILLER_19_25
*954 FILLER_19_38
*955 FILLER_19_48
*956 FILLER_19_52
*957 FILLER_19_61
*958 FILLER_19_72
*959 FILLER_19_76
*960 FILLER_19_84
*961 FILLER_19_92
*691 FILLER_1_0
*700 FILLER_1_112
*701 FILLER_1_121
*702 FILLER_1_129
*703 FILLER_1_137
*693 FILLER_1_16
*694 FILLER_1_24
*695 FILLER_1_36
*696 FILLER_1_47
*697 FILLER_1_54
*698 FILLER_1_61
*699 FILLER_1_75
*692 FILLER_1_8
*980 FILLER_20_113
*967 FILLER_20_12
*981 FILLER_20_121
*982 FILLER_20_132
*968 FILLER_20_14
*983 FILLER_20_140
*984 FILLER_20_144
*969 FILLER_20_21
*970 FILLER_20_23
*971 FILLER_20_31
*972 FILLER_20_33
*973 FILLER_20_37
*974 FILLER_20_39
*966 FILLER_20_4
*975 FILLER_20_51
*976 FILLER_20_55
*977 FILLER_20_75
*978 FILLER_20_86
*979 FILLER_20_91
*985 FILLER_21_0
*986 FILLER_21_10
*1000 FILLER_21_118
*1001 FILLER_21_121
*987 FILLER_21_14
*1002 FILLER_21_140
*1003 FILLER_21_144
*988 FILLER_21_16
*989 FILLER_21_21
*990 FILLER_21_29
*991 FILLER_21_39
*992 FILLER_21_48
*993 FILLER_21_56
*994 FILLER_21_61
*995 FILLER_21_65
*996 FILLER_21_74
*997 FILLER_21_82
*998 FILLER_21_87
*999 FILLER_21_89
*1004 FILLER_22_0
*1016 FILLER_22_115
*1017 FILLER_22_119
*1018 FILLER_22_126
*1019 FILLER_22_140
*1020 FILLER_22_144
*1006 FILLER_22_16
*1007 FILLER_22_26
*1008 FILLER_22_39
*1009 FILLER_22_43
*1010 FILLER_22_49
*1011 FILLER_22_57
*1012 FILLER_22_73
*1005 FILLER_22_8
*1013 FILLER_22_87
*1014 FILLER_22_89
*1015 FILLER_22_97
*1021 FILLER_23_0
*1033 FILLER_23_102
*1034 FILLER_23_106
*1035 FILLER_23_117
*1036 FILLER_23_119
*1037 FILLER_23_138
*1038 FILLER_23_142
*1039 FILLER_23_144
*1023 FILLER_23_16
*1024 FILLER_23_35
*1025 FILLER_23_46
*1026 FILLER_23_50
*1027 FILLER_23_52
*1028 FILLER_23_61
*1029 FILLER_23_75
*1030 FILLER_23_77
*1022 FILLER_23_8
*1031 FILLER_23_88
*1032 FILLER_23_91
*704 FILLER_2_0
*721 FILLER_2_106
*722 FILLER_2_117
*706 FILLER_2_12
*723 FILLER_2_125
*724 FILLER_2_131
*725 FILLER_2_139
*726 FILLER_2_143
*707 FILLER_2_18
*708 FILLER_2_20
*709 FILLER_2_31
*710 FILLER_2_51
*711 FILLER_2_53
*712 FILLER_2_61
*713 FILLER_2_63
*714 FILLER_2_69
*715 FILLER_2_71
*716 FILLER_2_77
*705 FILLER_2_8
*717 FILLER_2_85
*718 FILLER_2_89
*719 FILLER_2_91
*720 FILLER_2_95
*727 FILLER_3_0
*736 FILLER_3_118
*737 FILLER_3_121
*738 FILLER_3_125
*739 FILLER_3_137
*729 FILLER_3_16
*730 FILLER_3_20
*731 FILLER_3_28
*732 FILLER_3_30
*733 FILLER_3_61
*728 FILLER_3_8
*734 FILLER_3_90
*735 FILLER_3_94
*740 FILLER_4_0
*747 FILLER_4_134
*748 FILLER_4_142
*749 FILLER_4_144
*741 FILLER_4_24
*742 FILLER_4_28
*743 FILLER_4_31
*744 FILLER_4_38
*745 FILLER_4_53
*746 FILLER_4_75
*750 FILLER_5_0
*758 FILLER_5_110
*759 FILLER_5_114
*752 FILLER_5_12
*760 FILLER_5_121
*761 FILLER_5_133
*762 FILLER_5_141
*753 FILLER_5_18
*754 FILLER_5_36
*755 FILLER_5_54
*756 FILLER_5_58
*757 FILLER_5_71
*751 FILLER_5_8
*763 FILLER_6_0
*777 FILLER_6_103
*778 FILLER_6_105
*779 FILLER_6_126
*780 FILLER_6_136
*765 FILLER_6_17
*766 FILLER_6_25
*767 FILLER_6_29
*768 FILLER_6_31
*769 FILLER_6_38
*770 FILLER_6_40
*771 FILLER_6_48
*772 FILLER_6_50
*773 FILLER_6_69
*774 FILLER_6_71
*764 FILLER_6_8
*775 FILLER_6_91
*776 FILLER_6_99
*781 FILLER_7_0
*789 FILLER_7_118
*790 FILLER_7_121
*791 FILLER_7_125
*792 FILLER_7_133
*793 FILLER_7_141
*783 FILLER_7_29
*784 FILLER_7_36
*785 FILLER_7_40
*786 FILLER_7_61
*782 FILLER_7_8
*787 FILLER_7_81
*788 FILLER_7_83
*794 FILLER_8_0
*806 FILLER_8_104
*807 FILLER_8_112
*808 FILLER_8_121
*809 FILLER_8_128
*810 FILLER_8_136
*811 FILLER_8_144
*796 FILLER_8_26
*797 FILLER_8_31
*795 FILLER_8_4
*798 FILLER_8_53
*799 FILLER_8_55
*800 FILLER_8_61
*801 FILLER_8_63
*802 FILLER_8_82
*803 FILLER_8_84
*804 FILLER_8_91
*805 FILLER_8_97
*812 FILLER_9_0
*821 FILLER_9_109
*814 FILLER_9_11
*822 FILLER_9_113
*823 FILLER_9_121
*815 FILLER_9_13
*824 FILLER_9_139
*825 FILLER_9_143
*816 FILLER_9_19
*813 FILLER_9_2
*817 FILLER_9_41
*818 FILLER_9_61
*819 FILLER_9_69
*820 FILLER_9_86
*536 TAP_TAPCELL_ROW_0_0
*537 TAP_TAPCELL_ROW_0_1
*538 TAP_TAPCELL_ROW_0_2
*539 TAP_TAPCELL_ROW_0_3
*558 TAP_TAPCELL_ROW_10_22
*559 TAP_TAPCELL_ROW_10_23
*560 TAP_TAPCELL_ROW_11_24
*561 TAP_TAPCELL_ROW_11_25
*562 TAP_TAPCELL_ROW_12_26
*563 TAP_TAPCELL_ROW_12_27
*564 TAP_TAPCELL_ROW_13_28
*565 TAP_TAPCELL_ROW_13_29
*566 TAP_TAPCELL_ROW_14_30
*567 TAP_TAPCELL_ROW_14_31
*568 TAP_TAPCELL_ROW_15_32
*569 TAP_TAPCELL_ROW_15_33
*570 TAP_TAPCELL_ROW_16_34
*571 TAP_TAPCELL_ROW_16_35
*572 TAP_TAPCELL_ROW_17_36
*573 TAP_TAPCELL_ROW_17_37
*574 TAP_TAPCELL_ROW_18_38
*575 TAP_TAPCELL_ROW_18_39
*576 TAP_TAPCELL_ROW_19_40
*577 TAP_TAPCELL_ROW_19_41
*540 TAP_TAPCELL_ROW_1_4
*541 TAP_TAPCELL_ROW_1_5
*578 TAP_TAPCELL_ROW_20_42
*579 TAP_TAPCELL_ROW_20_43
*580 TAP_TAPCELL_ROW_21_44
*581 TAP_TAPCELL_ROW_21_45
*582 TAP_TAPCELL_ROW_22_46
*583 TAP_TAPCELL_ROW_22_47
*584 TAP_TAPCELL_ROW_23_48
*585 TAP_TAPCELL_ROW_23_49
*586 TAP_TAPCELL_ROW_23_50
*587 TAP_TAPCELL_ROW_23_51
*542 TAP_TAPCELL_ROW_2_6
*543 TAP_TAPCELL_ROW_2_7
*544 TAP_TAPCELL_ROW_3_8
*545 TAP_TAPCELL_ROW_3_9
*546 TAP_TAPCELL_ROW_4_10
*547 TAP_TAPCELL_ROW_4_11
*548 TAP_TAPCELL_ROW_5_12
*549 TAP_TAPCELL_ROW_5_13
*550 TAP_TAPCELL_ROW_6_14
*551 TAP_TAPCELL_ROW_6_15
*552 TAP_TAPCELL_ROW_7_16
*553 TAP_TAPCELL_ROW_7_17
*554 TAP_TAPCELL_ROW_8_18
*555 TAP_TAPCELL_ROW_8_19
*556 TAP_TAPCELL_ROW_9_20
*557 TAP_TAPCELL_ROW_9_21
*351 _078_
*352 _079_
*353 _080_
*354 _081_
*355 _082_
*356 _083_
*357 _084_
*358 _085_
*359 _086_
*360 _087_
*361 _088_
*362 _089_
*363 _090_
*364 _091_
*365 _092_
*366 _093_
*367 _094_
*368 _095_
*369 _096_
*370 _097_
*371 _098_
*372 _099_
*373 _100_
*374 _101_
*375 _102_
*376 _103_
*377 _104_
*378 _105_
*379 _106_
*380 _107_
*381 _108_
*382 _109_
*383 _110_
*384 _111_
*385 _112_
*386 _113_
*387 _114_
*388 _115_
*389 _116_
*390 _117_
*391 _118_
*392 _119_
*393 _120_
*394 _121_
*395 _122_
*396 _123_
*397 _124_
*398 _125_
*399 _126_
*400 _127_
*401 _128_
*402 _129_
*403 _130_
*404 _131_
*405 _132_
*406 _133_
*407 _134_
*408 _135_
*409 _136_
*410 _137_
*411 _138_
*412 _139_
*413 _140_
*414 _141_
*415 _142_
*416 _143_
*417 _144_
*418 _145_
*419 _146_
*420 _147_
*421 _148_
*422 _149_
*423 _150_
*424 _151_
*425 _152_
*426 _153_
*427 _154_
*428 _155_
*429 _156_
*430 _157_
*431 _158_
*432 _159_
*433 _160_
*434 _161_
*435 _162_
*436 _163_
*437 _164_
*438 _165_
*439 _166_
*440 _167_
*441 _168_
*442 _169_
*443 _170_
*444 _171_
*445 _172_
*446 _173_
*447 _174_
*448 _175_
*449 _176_
*450 _177_
*451 _178_
*452 _179_
*453 _180_
*454 _181_
*455 _182_
*456 _183_
*457 _184_
*458 _185_
*459 _186_
*460 _187_
*461 _188_
*462 _189_
*463 _190_
*464 _191_
*465 _192_
*466 _193_
*467 _194_
*468 _195_
*469 _196_
*470 _197_
*471 _198_
*472 _199_
*473 _200_
*474 _201_
*475 _202_
*476 _203_
*477 _204_
*478 _205_
*479 _206_
*480 _207_
*481 _208_
*482 _209_
*483 _210_
*484 _211_
*485 _212_
*486 _213_
*487 _214_
*488 _215_
*489 _216_
*490 _217_
*491 _218_
*492 _219_
*493 _220_
*494 _221_
*495 _222_
*496 _223_
*497 _224_
*498 _225_
*499 _226_
*500 _227_
*501 _228_
*502 _229_
*503 _230_
*504 _231_
*505 _232_
*506 _233_
*507 _234_
*508 _235_
*509 _236_
*510 _237_
*511 _238_
*512 _239_
*513 _240_
*514 _241_
*515 _242_
*516 _243_
*517 _244_
*518 _245_
*519 _246_
*520 _247_
*521 _248_
*522 _249_
*523 _250_
*524 _251_
*525 _252_
*526 _253_
*527 _254_
*528 _255_
*529 _256_
*530 _257_
*531 _258_
*532 _259_
*533 _260_
*534 _261_
*535 input1
*596 input10
*597 input11
*598 input12
*599 input13
*600 input14
*601 input15
*602 input16
*588 input2
*589 input3
*590 input4
*591 input5
*592 input6
*593 input7
*594 input8
*595 input9
*603 output17
*604 output18
*605 output19
*606 output20
*607 output21
*608 output22
*609 output23
*610 output24
*611 output25
*612 output26
*613 output27
*614 output28
*615 output29
*616 output30
*617 output31
*618 output32
*646 place100
*647 place101
*649 place103
*650 place104
*659 place105
*660 place106
*661 place107
*652 place108
*651 place109
*662 place110
*622 place71
*621 place72
*623 place73
*655 place74
*625 place75
*627 place77
*628 place78
*629 place79
*630 place80
*632 place82
*633 place83
*634 place84
*635 place85
*636 place86
*637 place87
*638 place89
*639 place90
*641 place92
*643 place94
*644 place95
*645 place96
*656 place97
*657 place98
*658 place99
*653 rebuffer111
*663 rebuffer112
*664 rebuffer113
*665 rebuffer114
*666 rebuffer115
*668 rebuffer123
*669 rebuffer124
*672 rebuffer142
*673 rebuffer143
*674 rebuffer144
*648 rebuffer145
*675 rebuffer148
*626 rebuffer151
*631 rebuffer153
*640 rebuffer154
*676 rebuffer155
*677 rebuffer156
*654 rebuffer157
*619 rebuffer158
*667 rebuffer159
*670 rebuffer160
*620 rebuffer181

*PORTS
A[0] I
A[1] I
A[2] I
A[3] I
A[4] I
A[5] I
A[6] I
A[7] I
B[0] I
B[1] I
B[2] I
B[3] I
B[4] I
B[5] I
B[6] I
B[7] I
P[0] O
P[10] O
P[11] O
P[12] O
P[13] O
P[14] O
P[15] O
P[1] O
P[2] O
P[3] O
P[4] O
P[5] O
P[6] O
P[7] O
P[8] O
P[9] O

*D_NET *111 0.00160395
*CONN
*P A[0] I
*I *535:A I *D sky130_fd_sc_hd__buf_8
*CAP
1 A[0] 0.00044774
2 *535:A 0.00044774
3 *535:A *364:A 5.05252e-05
4 *535:A *588:A 0
5 *535:A *166:18 0
6 *535:A *320:12 0.000415244
7 *364:B *535:A 0.000110306
8 *471:A *535:A 7.5301e-06
9 *2:25 *535:A 0
10 *13:16 *535:A 0.000124868
*RES
1 A[0] *535:A 27.5316 
*END

*D_NET *261 0.000418785
*CONN
*P A[1] I
*I *588:A I *D sky130_fd_sc_hd__buf_8
*CAP
1 A[1] 0.000202193
2 *588:A 0.000202193
3 *588:A *598:A 0
4 *535:A *588:A 0
5 *166:18 *588:A 1.43983e-05
*RES
1 A[1] *588:A 18.9182 
*END

*D_NET *262 0.00056531
*CONN
*P A[2] I
*I *589:A I *D sky130_fd_sc_hd__buf_8
*CAP
1 A[2] 0.000221359
2 *589:A 0.000221359
3 *589:A *590:A 0
4 *589:A *599:A 0.000122592
*RES
1 A[2] *589:A 20.0274 
*END

*D_NET *263 0.0010912
*CONN
*P A[3] I
*I *590:A I *D sky130_fd_sc_hd__buf_6
*CAP
1 A[3] 0.000452689
2 *590:A 0.000452689
3 *590:A *591:A 0
4 *590:A *599:A 0
5 *590:A *600:A 0
6 *589:A *590:A 0
7 *4:14 *590:A 0
8 *14:8 *590:A 0.000115874
9 *14:12 *590:A 6.99486e-05
*RES
1 A[3] *590:A 26.6714 
*END

*D_NET *264 0.00108047
*CONN
*P A[4] I
*I *591:A I *D sky130_fd_sc_hd__buf_2
*CAP
1 A[4] 0.00038757
2 *591:A 0.00038757
3 *591:A *600:A 0.000126065
4 *591:A *319:8 0
5 *590:A *591:A 0
6 *646:A *591:A 0.000179271
7 *14:8 *591:A 0
*RES
1 A[4] *591:A 25.5622 
*END

*D_NET *265 0.000885992
*CONN
*P A[5] I
*I *592:A I *D sky130_fd_sc_hd__dlygate4sd2_1
*CAP
1 A[5] 0.000234925
2 *592:A 0.000234925
3 *592:A *593:A 0.000140751
4 *592:A *594:A 0.000137078
5 *592:A *601:A 0.000138313
*RES
1 A[5] *592:A 22.9252 
*END

*D_NET *266 0.000693806
*CONN
*P A[6] I
*I *593:A I *D sky130_fd_sc_hd__dlygate4sd2_1
*CAP
1 A[6] 0.000151486
2 *593:A 0.000151486
3 *593:A *594:A 4.75721e-06
4 *593:A *602:A 0.000245325
5 *592:A *593:A 0.000140751
*RES
1 A[6] *593:A 18.3246 
*END

*D_NET *267 0.00161727
*CONN
*P A[7] I
*I *594:A I *D sky130_fd_sc_hd__clkdlybuf4s50_1
*CAP
1 A[7] 0.00062377
2 *594:A 0.00062377
3 *594:A *602:A 0.000227891
4 *506:A *594:A 0
5 *592:A *594:A 0.000137078
6 *593:A *594:A 4.75721e-06
*RES
1 A[7] *594:A 31.3832 
*END

*D_NET *268 0.00152352
*CONN
*P B[0] I
*I *595:A I *D sky130_fd_sc_hd__dlygate4sd2_1
*CAP
1 B[0] 0.000308522
2 *595:A 0.000308522
3 *595:A P[0] 0.000117455
4 *595:A P[1] 0.000341656
5 *595:A *596:A 5.77154e-05
6 *595:A *597:A 0.000146575
7 *508:B *595:A 7.79058e-05
8 *133:12 *595:A 0.000165169
*RES
1 B[0] *595:A 21.5029 
*END

*D_NET *269 0.00182587
*CONN
*P B[1] I
*I *596:A I *D sky130_fd_sc_hd__dlygate4sd2_1
*CAP
1 B[1] 0.000505962
2 *596:A 0.000505962
3 *596:A P[1] 0.000319954
4 *596:A *441:B 4.47123e-05
5 *596:A *329:12 0.000179286
6 *508:B *596:A 0.000212275
7 *595:A *596:A 5.77154e-05
*RES
1 B[1] *596:A 22.5629 
*END

*D_NET *270 0.00161679
*CONN
*P B[2] I
*I *597:A I *D sky130_fd_sc_hd__buf_2
*CAP
1 B[2] 0.000468803
2 *597:A 0.000468803
3 *597:A P[0] 0.000117566
4 *431:A *597:A 3.20264e-05
5 *595:A *597:A 0.000146575
6 *10:10 *597:A 0.000177085
7 *133:12 *597:A 0.000205934
*RES
1 B[2] *597:A 22.3334 
*END

*D_NET *271 0.00249482
*CONN
*P B[3] I
*I *598:A I *D sky130_fd_sc_hd__buf_6
*CAP
1 B[3] 0.00067944
2 *598:A 0.00067944
3 *598:A *599:A 0
4 *443:B *598:A 0.000139435
5 *471:B *598:A 3.18679e-05
6 *527:A *598:A 0.000145575
7 *588:A *598:A 0
8 *3:8 *598:A 0.000357075
9 *3:21 *598:A 0.000203865
10 *12:8 *598:A 0.000258128
*RES
1 B[3] *598:A 34.8455 
*END

*D_NET *272 0.000874941
*CONN
*P B[4] I
*I *599:A I *D sky130_fd_sc_hd__buf_2
*CAP
1 B[4] 0.000331942
2 *599:A 0.000331942
3 *589:A *599:A 0.000122592
4 *590:A *599:A 0
5 *598:A *599:A 0
6 *4:14 *599:A 7.40813e-05
7 *13:16 *599:A 1.43848e-05
*RES
1 B[4] *599:A 23.7647 
*END

*D_NET *273 0.000457174
*CONN
*P B[5] I
*I *600:A I *D sky130_fd_sc_hd__buf_8
*CAP
1 B[5] 0.000165554
2 *600:A 0.000165554
3 *590:A *600:A 0
4 *591:A *600:A 0.000126065
*RES
1 B[5] *600:A 18.9182 
*END

*D_NET *274 0.000309048
*CONN
*P B[6] I
*I *601:A I *D sky130_fd_sc_hd__buf_8
*CAP
1 B[6] 8.53677e-05
2 *601:A 8.53677e-05
3 *592:A *601:A 0.000138313
*RES
1 B[6] *601:A 17.8657 
*END

*D_NET *275 0.000772139
*CONN
*P B[7] I
*I *602:A I *D sky130_fd_sc_hd__buf_8
*CAP
1 B[7] 0.000149462
2 *602:A 0.000149462
3 *506:A *602:A 0
4 *593:A *602:A 0.000245325
5 *594:A *602:A 0.000227891
*RES
1 B[7] *602:A 19.4939 
*END

*D_NET *276 0.000505583
*CONN
*P P[0] O
*I *603:X O *D sky130_fd_sc_hd__clkdlybuf4s50_1
*CAP
1 P[0] 0.000135281
2 *603:X 0.000135281
3 *478:A P[0] 0
4 *595:A P[0] 0.000117455
5 *597:A P[0] 0.000117566
*RES
1 *603:X P[0] 19.525 
*END

*D_NET *277 0.000595012
*CONN
*P P[10] O
*I *604:X O *D sky130_fd_sc_hd__buf_2
*CAP
1 P[10] 0.000281227
2 *604:X 0.000281227
3 *395:B P[10] 3.25584e-05
*RES
1 *604:X P[10] 20.3766 
*END

*D_NET *278 0.00111748
*CONN
*P P[11] O
*I *605:X O *D sky130_fd_sc_hd__buf_2
*CAP
1 P[11] 0.000326164
2 *605:X 0.000326164
3 P[11] P[13] 0.000122592
4 P[11] *382:A1 0.000118166
5 P[11] *414:A 0.000224395
*RES
1 *605:X P[11] 21.6912 
*END

*D_NET *279 0.000945444
*CONN
*P P[12] O
*I *606:X O *D sky130_fd_sc_hd__buf_2
*CAP
1 P[12] 0.000472722
2 *606:X 0.000472722
3 P[12] P[13] 0
4 P[12] *395:A 0
5 *414:B P[12] 0
6 *606:A P[12] 0
*RES
1 *606:X P[12] 23.904 
*END

*D_NET *280 0.00218847
*CONN
*P P[13] O
*I *607:X O *D sky130_fd_sc_hd__buf_2
*CAP
1 P[13] 0.00095667
2 *607:X 0.00095667
3 P[13] *300:42 0
4 P[11] P[13] 0.000122592
5 P[12] P[13] 0
6 *383:A2 P[13] 5.04829e-06
7 *409:A P[13] 2.03126e-05
8 *414:B P[13] 0.000127179
*RES
1 *607:X P[13] 31.1139 
*END

*D_NET *281 0.000562637
*CONN
*P P[14] O
*I *608:X O *D sky130_fd_sc_hd__buf_2
*CAP
1 P[14] 0.000216018
2 *608:X 0.000216018
3 P[14] P[15] 0.000130601
4 *519:A P[14] 0
*RES
1 *608:X P[14] 18.9257 
*END

*D_NET *282 0.00125834
*CONN
*P P[15] O
*I *609:X O *D sky130_fd_sc_hd__buf_2
*CAP
1 P[15] 0.000529622
2 *609:X 0.000529622
3 P[14] P[15] 0.000130601
4 *423:B P[15] 6.85003e-05
5 *519:A P[15] 0
*RES
1 *609:X P[15] 27.9847 
*END

*D_NET *283 0.00169012
*CONN
*P P[1] O
*I *610:X O *D sky130_fd_sc_hd__clkdlybuf4s50_1
*CAP
1 P[1] 0.000214979
2 *610:X 0.000214979
3 *478:A P[1] 0.000296995
4 *595:A P[1] 0.000341656
5 *596:A P[1] 0.000319954
6 *222:12 P[1] 0.00030156
*RES
1 *610:X P[1] 23.5355 
*END

*D_NET *284 0.00035486
*CONN
*P P[2] O
*I *611:X O *D sky130_fd_sc_hd__clkdlybuf4s50_1
*CAP
1 P[2] 0.00017743
2 *611:X 0.00017743
3 P[2] P[3] 0
*RES
1 *611:X P[2] 18.6945 
*END

*D_NET *285 0.000527603
*CONN
*P P[3] O
*I *612:X O *D sky130_fd_sc_hd__buf_2
*CAP
1 P[3] 0.000221931
2 *612:X 0.000221931
3 P[3] P[4] 8.37408e-05
4 P[2] P[3] 0
*RES
1 *612:X P[3] 18.2465 
*END

*D_NET *286 0.000686177
*CONN
*P P[4] O
*I *613:X O *D sky130_fd_sc_hd__buf_2
*CAP
1 P[4] 0.000246435
2 *613:X 0.000246435
3 P[4] P[5] 0.000102365
4 P[3] P[4] 8.37408e-05
5 *639:A P[4] 7.20173e-06
*RES
1 *613:X P[4] 18.476 
*END

*D_NET *287 0.000757162
*CONN
*P P[5] O
*I *614:X O *D sky130_fd_sc_hd__buf_2
*CAP
1 P[5] 0.000327398
2 *614:X 0.000327398
3 P[5] *435:A2 0
4 P[4] P[5] 0.000102365
5 *639:A P[5] 0
*RES
1 *614:X P[5] 21.5685 
*END

*D_NET *288 0.0017893
*CONN
*P P[6] O
*I *615:X O *D sky130_fd_sc_hd__buf_2
*CAP
1 P[6] 0.000704013
2 *615:X 0.000704013
3 P[6] P[7] 0
4 P[6] *302:8 1.12605e-05
5 *619:A P[6] 6.96249e-05
6 *629:A P[6] 5.66868e-06
7 *654:A P[6] 0.000166523
8 *30:22 P[6] 7.50722e-05
9 *79:14 P[6] 5.0715e-05
10 *104:23 P[6] 2.41274e-06
*RES
1 *615:X P[6] 29.999 
*END

*D_NET *289 0.000724367
*CONN
*P P[7] O
*I *616:X O *D sky130_fd_sc_hd__buf_2
*CAP
1 P[7] 0.000339746
2 *616:X 0.000339746
3 P[7] P[8] 0
4 P[6] P[7] 0
5 *670:A P[7] 4.01437e-05
6 *30:22 P[7] 4.73037e-06
*RES
1 *616:X P[7] 22.2402 
*END

*D_NET *290 0.00149562
*CONN
*P P[8] O
*I *617:X O *D sky130_fd_sc_hd__buf_2
*CAP
1 P[8] 0.000652066
2 *617:X 0.000652066
3 P[8] P[9] 0
4 P[8] *426:A1 0
5 P[8] *426:B1 2.39535e-05
6 P[7] P[8] 0
7 *427:A2 P[8] 6.87698e-05
8 *618:A P[8] 0
9 *670:A P[8] 0
10 *31:18 P[8] 9.87648e-05
11 *85:20 P[8] 0
*RES
1 *617:X P[8] 28.6916 
*END

*D_NET *291 0.00056507
*CONN
*P P[9] O
*I *618:X O *D sky130_fd_sc_hd__buf_2
*CAP
1 P[9] 0.000282535
2 *618:X 0.000282535
3 P[8] P[9] 0
*RES
1 *618:X P[9] 20.3838 
*END

*D_NET *33 0.00422653
*CONN
*I *352:A1 I *D sky130_fd_sc_hd__a21o_1
*I *478:A I *D sky130_fd_sc_hd__fa_1
*I *521:COUT O *D sky130_fd_sc_hd__ha_1
*CAP
1 *352:A1 0.000304319
2 *478:A 0.00126611
3 *521:COUT 0.000961788
4 *352:A1 *352:A2 0.000258826
5 *352:A1 *352:B1 6.27782e-05
6 *352:A1 *370:A2 6.27782e-05
7 *352:A1 *523:B 0.000151473
8 *352:A1 *345:10 7.00887e-05
9 *478:A P[0] 0
10 *478:A P[1] 0.000296995
11 *478:A *515:A 0.00011688
12 *478:A *515:B 0.000209693
13 *478:A *521:A 2.03887e-05
14 *478:A *222:12 0.000129974
15 *603:A *478:A 0.000314443
*RES
1 *521:COUT *478:A 47.875 
2 *478:A *352:A1 29.5248 
*END

*D_NET *34 0.00247918
*CONN
*I *644:A I *D sky130_fd_sc_hd__buf_4
*I *371:A2 I *D sky130_fd_sc_hd__a21o_1
*I *478:COUT O *D sky130_fd_sc_hd__fa_1
*CAP
1 *644:A 0.000112305
2 *371:A2 0.000106135
3 *478:COUT 0.000430092
4 *34:10 0.000648531
5 *371:A2 *515:B 2.41274e-06
6 *371:A2 *37:8 7.65564e-05
7 *371:A2 *38:6 6.50727e-05
8 *644:A *352:A2 0.000374105
9 *644:A *352:B1 0.000359056
10 *644:A *51:8 1.07549e-05
11 *34:10 *352:A2 0.000149628
12 *34:10 *352:B1 0.000144531
*RES
1 *478:COUT *34:10 21.5719 
2 *34:10 *371:A2 16.691 
3 *34:10 *644:A 20.5642 
*END

*D_NET *35 0.0012706
*CONN
*I *370:B1 I *D sky130_fd_sc_hd__a21o_1
*I *514:COUT O *D sky130_fd_sc_hd__ha_4
*CAP
1 *370:B1 0.000415161
2 *514:COUT 0.000415161
3 *370:B1 *370:A1 5.28741e-05
4 *370:B1 *370:A2 2.86948e-05
5 *370:B1 *523:A 3.40412e-05
6 *370:B1 *643:A 2.39943e-05
7 *370:B1 *64:10 0.000300674
*RES
1 *514:COUT *370:B1 39.3555 
*END

*D_NET *36 0.00230467
*CONN
*I *672:A I *D sky130_fd_sc_hd__buf_6
*I *370:A1 I *D sky130_fd_sc_hd__a21o_1
*I *372:C I *D sky130_fd_sc_hd__and3_4
*I *514:SUM O *D sky130_fd_sc_hd__ha_4
*CAP
1 *672:A 2.93219e-05
2 *370:A1 0.00016843
3 *372:C 0
4 *514:SUM 0.000198584
5 *36:18 0.00038054
6 *36:12 0.000440016
7 *370:A1 *372:B 0.000117116
8 *370:A1 *373:B1 0.000112367
9 *370:A1 *63:10 0.00026012
10 *36:12 *391:A1 0.000156823
11 *36:12 *524:B 6.80864e-05
12 *36:18 *373:B1 3.44412e-06
13 *36:18 *524:A 4.8109e-05
14 *36:18 *53:29 0.000268834
15 *370:B1 *370:A1 5.28741e-05
*RES
1 *514:SUM *36:12 23.8535 
2 *36:12 *36:18 15.815 
3 *36:18 *372:C 9.24915 
4 *36:18 *370:A1 15.5427 
5 *36:12 *672:A 9.97254 
*END

*D_NET *37 0.00347939
*CONN
*I *371:B1 I *D sky130_fd_sc_hd__a21o_1
*I *643:A I *D sky130_fd_sc_hd__buf_4
*I *515:COUT O *D sky130_fd_sc_hd__ha_1
*CAP
1 *371:B1 0
2 *643:A 0.000359888
3 *515:COUT 0.000526801
4 *37:8 0.000886688
5 *643:A *354:B 6.84074e-06
6 *643:A *523:A 0.000201351
7 *643:A *620:A 0.000155045
8 *643:A *641:A 0.000195154
9 *643:A *64:10 0.000699945
10 *643:A *316:10 3.31882e-05
11 *643:A *345:10 0.000120745
12 *37:8 *515:B 1.29364e-05
13 *37:8 *620:A 6.08467e-05
14 *37:8 *38:6 0.000111722
15 *37:8 *345:10 7.68538e-06
16 *370:B1 *643:A 2.39943e-05
17 *371:A2 *37:8 7.65564e-05
*RES
1 *515:COUT *37:8 17.6164 
2 *37:8 *643:A 35.3384 
3 *37:8 *371:B1 9.24915 
*END

*D_NET *38 0.0016882
*CONN
*I *371:A1 I *D sky130_fd_sc_hd__a21o_1
*I *620:A I *D sky130_fd_sc_hd__buf_4
*I *515:SUM O *D sky130_fd_sc_hd__ha_1
*CAP
1 *371:A1 0
2 *620:A 0.000268129
3 *515:SUM 2.3947e-05
4 *38:6 0.000292076
5 *620:A *523:A 0.0001703
6 *620:A *345:10 0.000541063
7 *371:A2 *38:6 6.50727e-05
8 *643:A *620:A 0.000155045
9 *37:8 *620:A 6.08467e-05
10 *37:8 *38:6 0.000111722
*RES
1 *515:SUM *38:6 10.5271 
2 *38:6 *620:A 29.5571 
3 *38:6 *371:A1 9.24915 
*END

*D_NET *39 0.00247068
*CONN
*I *352:B1 I *D sky130_fd_sc_hd__a21o_1
*I *516:COUT O *D sky130_fd_sc_hd__ha_1
*CAP
1 *352:B1 0.000534632
2 *516:COUT 0.000534632
3 *352:B1 *352:A2 0.000112199
4 *352:B1 *370:A2 7.283e-05
5 *352:B1 *478:CIN 0.000339754
6 *352:B1 *515:A 6.14128e-05
7 *352:B1 *516:A 0.000109427
8 *352:B1 *523:B 0
9 *352:B1 *645:A 1.65872e-05
10 *352:B1 *51:8 0.000122844
11 *352:A1 *352:B1 6.27782e-05
12 *611:A *352:B1 0
13 *644:A *352:B1 0.000359056
14 *34:10 *352:B1 0.000144531
*RES
1 *516:COUT *352:B1 46.7257 
*END

*D_NET *40 0.00178191
*CONN
*I *352:A2 I *D sky130_fd_sc_hd__a21o_1
*I *516:SUM O *D sky130_fd_sc_hd__ha_1
*CAP
1 *352:A2 0.000396043
2 *516:SUM 0.000396043
3 *352:A2 *523:B 0
4 *352:A2 *645:A 9.50664e-05
5 *352:A1 *352:A2 0.000258826
6 *352:B1 *352:A2 0.000112199
7 *644:A *352:A2 0.000374105
8 *34:10 *352:A2 0.000149628
*RES
1 *516:SUM *352:A2 43.3446 
*END

*D_NET *41 0.00216293
*CONN
*I *636:A I *D sky130_fd_sc_hd__buf_4
*I *419:B1 I *D sky130_fd_sc_hd__a21o_1
*I *517:COUT O *D sky130_fd_sc_hd__ha_1
*CAP
1 *636:A 0.000236215
2 *419:B1 0.000217725
3 *517:COUT 0.00027649
4 *41:6 0.000730429
5 *419:B1 *419:A1 0.000117376
6 *419:B1 *42:19 6.64392e-05
7 *636:A *420:A2 0
8 *636:A *42:19 0.000321585
9 *41:6 *419:A2 0.00014853
10 *41:6 *42:19 4.81452e-05
*RES
1 *517:COUT *41:6 13.8548 
2 *41:6 *419:B1 13.1796 
3 *41:6 *636:A 24.9571 
*END

*D_NET *42 0.00260249
*CONN
*I *635:A I *D sky130_fd_sc_hd__buf_4
*I *416:A I *D sky130_fd_sc_hd__and3_1
*I *419:A1 I *D sky130_fd_sc_hd__a21o_1
*I *517:SUM O *D sky130_fd_sc_hd__ha_1
*CAP
1 *635:A 2.21085e-05
2 *416:A 0.000159677
3 *419:A1 2.0221e-05
4 *517:SUM 0
5 *42:19 0.000423249
6 *42:4 0.000261684
7 *416:A *416:C 7.93303e-06
8 *416:A *417:D 8.85839e-05
9 *416:A *423:A 0.000222149
10 *416:A *73:12 0.000150553
11 *416:A *95:6 7.07171e-05
12 *419:A1 *419:A2 6.64392e-05
13 *635:A *417:D 1.65872e-05
14 *635:A *73:12 2.16355e-05
15 *42:19 *417:D 9.91852e-05
16 *42:19 *419:A2 0.000100999
17 *42:19 *422:A2 0
18 *42:19 *504:B 0.000169097
19 *42:19 *628:A 0
20 *42:19 *55:10 0
21 *42:19 *309:24 0.000148129
22 *419:B1 *419:A1 0.000117376
23 *419:B1 *42:19 6.64392e-05
24 *636:A *42:19 0.000321585
25 *41:6 *42:19 4.81452e-05
*RES
1 *517:SUM *42:4 9.24915 
2 *42:4 *419:A1 10.5271 
3 *42:4 *42:19 19.5845 
4 *42:19 *416:A 16.0973 
5 *42:19 *635:A 9.97254 
*END

*D_NET *43 0.00233758
*CONN
*I *383:B1 I *D sky130_fd_sc_hd__a21oi_1
*I *421:B1 I *D sky130_fd_sc_hd__a21o_1
*I *518:COUT O *D sky130_fd_sc_hd__ha_1
*CAP
1 *383:B1 0.000180096
2 *421:B1 6.64566e-05
3 *518:COUT 0.000205428
4 *43:8 0.00045198
5 *383:B1 *383:A1 6.08467e-05
6 *383:B1 *384:B1 0.000173566
7 *383:B1 *421:A2 8.36586e-06
8 *383:B1 *307:24 0.000348199
9 *421:B1 *307:16 5.04829e-06
10 *421:B1 *307:24 2.16355e-05
11 *43:8 *384:A1 2.3301e-05
12 *43:8 *421:A2 0.000474351
13 *43:8 *627:A 3.54138e-05
14 *43:8 *300:14 0.000229188
15 *43:8 *307:24 5.37077e-05
*RES
1 *518:COUT *43:8 22.6404 
2 *43:8 *421:B1 15.0271 
3 *43:8 *383:B1 20.8723 
*END

*D_NET *44 0.00197409
*CONN
*I *634:A I *D sky130_fd_sc_hd__buf_4
*I *416:B I *D sky130_fd_sc_hd__and3_1
*I *518:SUM O *D sky130_fd_sc_hd__ha_1
*CAP
1 *634:A 9.06454e-05
2 *416:B 0.000408679
3 *518:SUM 0.000198495
4 *44:10 0.00069782
5 *416:B *423:A 0.00023805
6 *416:B *73:12 6.50727e-05
7 *634:A *422:C1 1.18084e-05
8 *634:A *170:16 6.32836e-05
9 *634:A *300:14 0
10 *44:10 *627:A 0
11 *44:10 *170:16 0.000200236
12 *44:10 *300:14 0
*RES
1 *518:SUM *44:10 18.5201 
2 *44:10 *416:B 20.5732 
3 *44:10 *634:A 16.4116 
*END

*D_NET *45 0.000954772
*CONN
*I *385:B1 I *D sky130_fd_sc_hd__a21o_1
*I *519:COUT O *D sky130_fd_sc_hd__ha_1
*CAP
1 *385:B1 0.000344607
2 *519:COUT 0.000344607
3 *385:B1 *385:A2 0.000261696
4 *385:B1 *519:B 3.86207e-06
*RES
1 *519:COUT *385:B1 35.87 
*END

*D_NET *46 0.0014449
*CONN
*I *385:A2 I *D sky130_fd_sc_hd__a21o_1
*I *423:B I *D sky130_fd_sc_hd__xnor2_1
*I *519:SUM O *D sky130_fd_sc_hd__ha_1
*CAP
1 *385:A2 0.000285474
2 *423:B 0.000108466
3 *519:SUM 0.000120976
4 *46:6 0.000514916
5 *385:A2 *384:A1 0
6 *385:A2 *519:B 3.31813e-05
7 *423:B P[15] 6.85003e-05
8 *423:B *519:A 5.04746e-05
9 *46:6 *519:B 1.21461e-06
10 *385:B1 *385:A2 0.000261696
*RES
1 *519:SUM *46:6 11.6364 
2 *46:6 *423:B 22.1574 
3 *46:6 *385:A2 27.0361 
*END

*D_NET *47 0.00218557
*CONN
*I *378:A2 I *D sky130_fd_sc_hd__a21oi_1
*I *392:B1 I *D sky130_fd_sc_hd__a21oi_4
*I *520:COUT O *D sky130_fd_sc_hd__ha_4
*CAP
1 *378:A2 0.000203805
2 *392:B1 2.86212e-05
3 *520:COUT 0.000378799
4 *47:10 0.000611224
5 *378:A2 *417:C 5.481e-05
6 *378:A2 *48:10 2.219e-05
7 *378:A2 *48:23 0.000127194
8 *378:A2 *48:40 8.01837e-05
9 *378:A2 *58:10 0.000217173
10 *378:A2 *67:10 0.000143859
11 *392:B1 *392:A1 6.08467e-05
12 *47:10 *520:A 1.43698e-05
13 *47:10 *48:10 0.000122992
14 *47:10 *58:10 0.0001195
*RES
1 *520:COUT *47:10 20.602 
2 *47:10 *392:B1 14.4725 
3 *47:10 *378:A2 21.7084 
*END

*D_NET *48 0.00304047
*CONN
*I *648:A I *D sky130_fd_sc_hd__buf_4
*I *390:A I *D sky130_fd_sc_hd__nand2_1
*I *374:A I *D sky130_fd_sc_hd__and3_4
*I *392:A1 I *D sky130_fd_sc_hd__a21oi_4
*I *520:SUM O *D sky130_fd_sc_hd__ha_4
*CAP
1 *648:A 2.76686e-05
2 *390:A 0
3 *374:A 0
4 *392:A1 0.000197019
5 *520:SUM 0.000371457
6 *48:40 0.000225615
7 *48:23 0.000232188
8 *48:10 0.000602718
9 *392:A1 *84:14 0.000169041
10 *648:A *336:20 0.000122378
11 *48:10 *418:B1 8.29867e-05
12 *48:10 *493:CIN 5.53281e-05
13 *48:10 *520:A 1.43832e-05
14 *48:23 *418:B1 0.000120052
15 *48:40 *388:A 6.50586e-05
16 *48:40 *390:B 1.72799e-05
17 *48:40 *417:C 7.50872e-05
18 *48:40 *418:B1 0.00018293
19 *48:40 *336:20 6.58759e-05
20 *378:A2 *48:10 2.219e-05
21 *378:A2 *48:23 0.000127194
22 *378:A2 *48:40 8.01837e-05
23 *392:B1 *392:A1 6.08467e-05
24 *47:10 *48:10 0.000122992
*RES
1 *520:SUM *48:10 21.0173 
2 *48:10 *392:A1 18.9335 
3 *48:10 *48:23 2.24725 
4 *48:23 *374:A 13.7491 
5 *48:23 *48:40 11.5376 
6 *48:40 *390:A 9.24915 
7 *48:40 *648:A 10.5271 
*END

*D_NET *49 0.00551782
*CONN
*I *632:A I *D sky130_fd_sc_hd__buf_4
*I *376:A1 I *D sky130_fd_sc_hd__a21oi_1
*I *391:B1 I *D sky130_fd_sc_hd__a21oi_4
*I *522:COUT O *D sky130_fd_sc_hd__ha_4
*CAP
1 *632:A 0
2 *376:A1 0
3 *391:B1 0.000397349
4 *522:COUT 0.000670248
5 *49:24 0.000610289
6 *49:14 0.000883189
7 *391:B1 *391:A2 0.000686876
8 *391:B1 *468:A 0
9 *391:B1 *526:A 0.000223188
10 *391:B1 *50:21 0.000460664
11 *391:B1 *83:14 0.000384686
12 *49:14 *398:A 0
13 *49:14 *398:B 0.000102033
14 *49:14 *477:A2 9.60216e-05
15 *49:14 *477:A3 0.000118485
16 *49:14 *630:A 8.39059e-05
17 *49:14 *54:25 3.27973e-05
18 *49:14 *305:8 3.82228e-05
19 *49:14 *336:20 2.90554e-05
20 *49:24 *666:A 8.89094e-05
21 *49:24 *50:21 5.41227e-05
22 *49:24 *83:14 5.64929e-05
23 *49:24 *336:20 0.000321455
24 *49:24 *339:10 0.000165521
25 *31:18 *49:14 1.43055e-05
*RES
1 *522:COUT *49:14 33.0134 
2 *49:14 *49:24 12.5156 
3 *49:24 *391:B1 33.8522 
4 *49:24 *376:A1 13.7491 
5 *49:14 *632:A 9.24915 
*END

*D_NET *50 0.00454863
*CONN
*I *666:A I *D sky130_fd_sc_hd__buf_4
*I *374:C I *D sky130_fd_sc_hd__and3_4
*I *391:A2 I *D sky130_fd_sc_hd__a21oi_4
*I *522:SUM O *D sky130_fd_sc_hd__ha_4
*CAP
1 *666:A 7.70478e-05
2 *374:C 0.000351839
3 *391:A2 0.000498242
4 *522:SUM 0
5 *50:21 0.000581443
6 *50:6 0.000650798
7 *374:C *376:A2 8.73713e-05
8 *374:C *376:B1 0.000160617
9 *391:A2 *391:A1 6.3657e-05
10 *391:A2 *489:A 0
11 *391:A2 *511:B 0
12 *391:A2 *522:A 0
13 *391:A2 *526:B 1.94472e-05
14 *391:A2 *57:10 7.60183e-05
15 *391:A2 *83:8 4.29314e-06
16 *391:A2 *299:16 0
17 *666:A *427:B1 0
18 *666:A *83:14 5.66868e-06
19 *666:A *339:10 0
20 *50:21 *57:10 0.000274318
21 *50:21 *57:23 0.000214073
22 *391:B1 *391:A2 0.000686876
23 *391:B1 *50:21 0.000460664
24 *401:A *391:A2 0.000157132
25 *453:A *391:A2 3.60883e-05
26 *49:24 *666:A 8.89094e-05
27 *49:24 *50:21 5.41227e-05
*RES
1 *522:SUM *50:6 13.7491 
2 *50:6 *391:A2 31.1468 
3 *50:6 *50:21 8.89128 
4 *50:21 *374:C 19.898 
5 *50:21 *666:A 15.9964 
*END

*D_NET *51 0.00310982
*CONN
*I *639:A I *D sky130_fd_sc_hd__buf_4
*I *370:A2 I *D sky130_fd_sc_hd__a21o_1
*I *523:COUT O *D sky130_fd_sc_hd__ha_4
*CAP
1 *639:A 0.000540652
2 *370:A2 0.000358233
3 *523:COUT 9.98521e-05
4 *51:8 0.000998736
5 *370:A2 *351:B 0.000112361
6 *370:A2 *61:10 6.27782e-05
7 *639:A P[4] 7.20173e-06
8 *639:A P[5] 0
9 *639:A *351:B 6.53523e-05
10 *639:A *435:A2 0.000359311
11 *639:A *435:B1 9.28874e-05
12 *639:A *78:14 6.08467e-05
13 *639:A *293:16 0
14 *639:A *311:36 0
15 *639:A *313:18 5.37081e-05
16 *352:A1 *370:A2 6.27782e-05
17 *352:B1 *370:A2 7.283e-05
18 *352:B1 *51:8 0.000122844
19 *370:B1 *370:A2 2.86948e-05
20 *644:A *51:8 1.07549e-05
*RES
1 *523:COUT *51:8 16.8269 
2 *51:8 *370:A2 22.2611 
3 *51:8 *639:A 30.4231 
*END

*D_NET *52 0.00133372
*CONN
*I *638:A I *D sky130_fd_sc_hd__buf_6
*I *372:B I *D sky130_fd_sc_hd__and3_4
*I *523:SUM O *D sky130_fd_sc_hd__ha_4
*CAP
1 *638:A 0.000218053
2 *372:B 0.000177598
3 *523:SUM 0.000155516
4 *52:10 0.000551167
5 *372:B *373:B1 0.000114271
6 *370:A1 *372:B 0.000117116
*RES
1 *523:SUM *52:10 16.7198 
2 *52:10 *372:B 18.9335 
3 *52:10 *638:A 18.5201 
*END

*D_NET *53 0.00504056
*CONN
*I *630:A I *D sky130_fd_sc_hd__buf_4
*I *373:C1 I *D sky130_fd_sc_hd__a221o_2
*I *391:A1 I *D sky130_fd_sc_hd__a21oi_4
*I *524:COUT O *D sky130_fd_sc_hd__ha_4
*CAP
1 *630:A 0.00031468
2 *373:C1 1.26312e-05
3 *391:A1 0.000735034
4 *524:COUT 0.00012779
5 *53:29 0.0006034
6 *53:6 0.00113891
7 *373:C1 *373:A1 6.50727e-05
8 *373:C1 *66:10 2.65831e-05
9 *391:A1 *509:A 3.27437e-05
10 *391:A1 *509:B 0.000114271
11 *391:A1 *522:A 0
12 *391:A1 *522:B 0
13 *391:A1 *524:B 0.000107771
14 *391:A1 *54:14 0.000112367
15 *391:A1 *227:14 0.000130172
16 *630:A *640:A 5.01668e-05
17 *630:A *63:10 2.22342e-05
18 *630:A *303:12 2.41483e-05
19 *630:A *336:20 0.000115934
20 *53:29 *524:A 5.71992e-05
21 *53:29 *54:14 6.30576e-05
22 *53:29 *54:25 5.48733e-05
23 *53:29 *63:10 0.000152143
24 *391:A2 *391:A1 6.3657e-05
25 *401:A *391:A1 4.39523e-05
26 *30:22 *630:A 0.000163465
27 *30:22 *53:29 0.000198737
28 *36:12 *391:A1 0.000156823
29 *36:18 *53:29 0.000268834
30 *49:14 *630:A 8.39059e-05
*RES
1 *524:COUT *53:6 11.0817 
2 *53:6 *391:A1 37.5144 
3 *53:6 *53:29 15.8828 
4 *53:29 *373:C1 14.4725 
5 *53:29 *630:A 22.5417 
*END

*D_NET *54 0.00508571
*CONN
*I *629:A I *D sky130_fd_sc_hd__buf_4
*I *373:A1 I *D sky130_fd_sc_hd__a221o_2
*I *372:A I *D sky130_fd_sc_hd__and3_4
*I *524:SUM O *D sky130_fd_sc_hd__ha_4
*CAP
1 *629:A 0.000429996
2 *373:A1 0.000149311
3 *372:A 3.59575e-05
4 *524:SUM 0.000539657
5 *54:25 0.00075063
6 *54:14 0.000746938
7 *373:A1 *373:A2 0.000171288
8 *373:A1 *373:B2 7.74295e-05
9 *373:A1 *477:C1 4.58003e-05
10 *373:A1 *66:10 1.80122e-05
11 *629:A P[6] 5.66868e-06
12 *629:A *398:B 0.000301016
13 *629:A *473:B1 4.19665e-06
14 *629:A *474:A2 0.000218503
15 *629:A *477:A3 1.19513e-05
16 *629:A *477:B1 0.000408914
17 *629:A *621:A 4.62129e-05
18 *629:A *670:A 0
19 *629:A *104:23 0.000134976
20 *629:A *302:8 0.000139517
21 *629:A *302:22 5.28067e-05
22 *54:14 *524:A 1.07549e-05
23 *54:14 *524:B 8.36586e-06
24 *54:25 *398:B 0.000246801
25 *54:25 *477:B1 3.31733e-05
26 *373:C1 *373:A1 6.50727e-05
27 *391:A1 *54:14 0.000112367
28 *30:22 *629:A 8.77726e-05
29 *30:22 *54:25 8.18934e-05
30 *49:14 *54:25 3.27973e-05
31 *53:29 *54:14 6.30576e-05
32 *53:29 *54:25 5.48733e-05
*RES
1 *524:SUM *54:14 25.0896 
2 *54:14 *372:A 14.4725 
3 *54:14 *54:25 7.23027 
4 *54:25 *373:A1 18.3548 
5 *54:25 *629:A 30.9777 
*END

*D_NET *55 0.00203183
*CONN
*I *628:A I *D sky130_fd_sc_hd__buf_4
*I *420:B1 I *D sky130_fd_sc_hd__a21o_1
*I *525:COUT O *D sky130_fd_sc_hd__ha_1
*CAP
1 *628:A 0.00029831
2 *420:B1 8.87825e-05
3 *525:COUT 0.000176343
4 *55:10 0.000563436
5 *420:B1 *420:A2 1.41976e-05
6 *420:B1 *56:18 0.000133333
7 *628:A *381:A 0.000164842
8 *628:A *416:C 6.28484e-05
9 *628:A *421:A2 0
10 *628:A *422:A2 0
11 *628:A *423:A 0.000145938
12 *628:A *73:12 0.000134428
13 *55:10 *416:C 8.62625e-06
14 *55:10 *420:A2 0.000175689
15 *55:10 *525:A 6.50586e-05
16 *55:10 *627:A 0
17 *55:10 *56:10 0
18 *42:19 *628:A 0
19 *42:19 *55:10 0
*RES
1 *525:COUT *55:10 18.3808 
2 *55:10 *420:B1 16.7392 
3 *55:10 *628:A 23.3638 
*END

*D_NET *56 0.00147457
*CONN
*I *627:A I *D sky130_fd_sc_hd__buf_4
*I *420:A1 I *D sky130_fd_sc_hd__a21o_1
*I *416:C I *D sky130_fd_sc_hd__and3_1
*I *525:SUM O *D sky130_fd_sc_hd__ha_1
*CAP
1 *627:A 9.3446e-05
2 *420:A1 0
3 *416:C 6.83648e-05
4 *525:SUM 0.000165142
5 *56:18 0.000314679
6 *56:10 0.000504901
7 *416:C *421:A2 0
8 *627:A *170:16 0
9 *627:A *300:14 5.22654e-06
10 *56:10 *518:A 1.45944e-05
11 *56:10 *518:B 3.34802e-05
12 *56:10 *170:16 0
13 *56:18 *518:A 2.65831e-05
14 *416:A *416:C 7.93303e-06
15 *420:B1 *56:18 0.000133333
16 *628:A *416:C 6.28484e-05
17 *43:8 *627:A 3.54138e-05
18 *44:10 *627:A 0
19 *55:10 *416:C 8.62625e-06
20 *55:10 *627:A 0
21 *55:10 *56:10 0
*RES
1 *525:SUM *56:10 17.5503 
2 *56:10 *56:18 9.85313 
3 *56:18 *416:C 19.9311 
4 *56:18 *420:A1 9.24915 
5 *56:10 *627:A 16.4116 
*END

*D_NET *57 0.0031176
*CONN
*I *427:B1 I *D sky130_fd_sc_hd__a21oi_2
*I *376:B1 I *D sky130_fd_sc_hd__a21oi_1
*I *392:A2 I *D sky130_fd_sc_hd__a21oi_4
*I *526:COUT O *D sky130_fd_sc_hd__ha_4
*CAP
1 *427:B1 0.000338587
2 *376:B1 7.2774e-05
3 *392:A2 4.17153e-05
4 *526:COUT 0.000306617
5 *57:23 0.000524826
6 *57:10 0.000461797
7 *376:B1 *376:A2 6.23875e-05
8 *427:B1 *476:A0 0.000183009
9 *427:B1 *476:A1 1.61631e-05
10 *427:B1 *305:31 0.000178578
11 *427:B1 *339:10 6.65668e-05
12 *427:B1 *339:52 0.000137137
13 *57:10 *526:B 2.41274e-06
14 *374:C *376:B1 0.000160617
15 *391:A2 *57:10 7.60183e-05
16 *666:A *427:B1 0
17 *50:21 *57:10 0.000274318
18 *50:21 *57:23 0.000214073
*RES
1 *526:COUT *57:10 21.5663 
2 *57:10 *392:A2 14.4725 
3 *57:10 *57:23 8.40826 
4 *57:23 *376:B1 11.6364 
5 *57:23 *427:B1 27.8935 
*END

*D_NET *58 0.00348679
*CONN
*I *631:A I *D sky130_fd_sc_hd__buf_4
*I *390:B I *D sky130_fd_sc_hd__nand2_1
*I *374:B I *D sky130_fd_sc_hd__and3_4
*I *376:A2 I *D sky130_fd_sc_hd__a21oi_1
*I *526:SUM O *D sky130_fd_sc_hd__ha_4
*CAP
1 *631:A 0.000316221
2 *390:B 9.93122e-05
3 *374:B 0
4 *376:A2 0.000204425
5 *526:SUM 0.000129656
6 *58:12 0.000204425
7 *58:10 0.000484278
8 *58:6 0.000830842
9 *376:A2 *379:A1 6.23875e-05
10 *376:A2 *67:10 0.000171288
11 *390:B *417:C 0.000118485
12 *390:B *84:14 0
13 *390:B *302:34 8.62625e-06
14 *390:B *321:14 0
15 *631:A *379:A1 0.000143467
16 *631:A *468:A 9.34396e-06
17 *631:A *520:B 7.30461e-06
18 *631:A *626:A 5.62332e-05
19 *631:A *255:14 0
20 *58:6 *520:B 9.5664e-06
21 *58:10 *379:A1 0
22 *58:10 *520:B 6.00269e-05
23 *58:10 *84:14 0
24 *58:10 *255:14 6.71883e-05
25 *374:C *376:A2 8.73713e-05
26 *376:B1 *376:A2 6.23875e-05
27 *378:A2 *58:10 0.000217173
28 *47:10 *58:10 0.0001195
29 *48:40 *390:B 1.72799e-05
*RES
1 *526:SUM *58:6 11.0817 
2 *58:6 *58:10 15.8828 
3 *58:10 *58:12 4.5 
4 *58:12 *376:A2 16.1214 
5 *58:12 *374:B 9.24915 
6 *58:10 *390:B 16.8269 
7 *58:6 *631:A 26.0663 
*END

*D_NET *59 0.00244795
*CONN
*I *625:A I *D sky130_fd_sc_hd__buf_4
*I *419:A2 I *D sky130_fd_sc_hd__a21o_1
*I *534:COUT O *D sky130_fd_sc_hd__ha_1
*CAP
1 *625:A 5.88237e-05
2 *419:A2 0.000805473
3 *534:COUT 0
4 *59:4 0.000864296
5 *419:A2 *493:CIN 1.36606e-05
6 *419:A2 *517:A 0.000307799
7 *419:A2 *534:A 1.63652e-05
8 *625:A *417:D 6.5568e-05
9 *419:A1 *419:A2 6.64392e-05
10 *41:6 *419:A2 0.00014853
11 *42:19 *419:A2 0.000100999
*RES
1 *534:COUT *59:4 9.24915 
2 *59:4 *419:A2 35.4118 
3 *59:4 *625:A 10.9612 
*END

*D_NET *60 0.00567844
*CONN
*I *417:A I *D sky130_fd_sc_hd__nand4_1
*I *378:A1 I *D sky130_fd_sc_hd__a21oi_1
*I *655:A I *D sky130_fd_sc_hd__buf_4
*I *623:A I *D sky130_fd_sc_hd__buf_4
*I *377:A I *D sky130_fd_sc_hd__nand2_1
*I *375:A I *D sky130_fd_sc_hd__and2_4
*I *534:SUM O *D sky130_fd_sc_hd__ha_1
*CAP
1 *417:A 0.000100179
2 *378:A1 6.60475e-05
3 *655:A 3.32362e-05
4 *623:A 0.000146018
5 *377:A 0.000105191
6 *375:A 2.43143e-05
7 *534:SUM 0.000172403
8 *60:52 0.00036405
9 *60:36 0.000257506
10 *60:12 0.000129506
11 *60:10 0.00034675
12 *60:6 0.000638725
13 *375:A *375:B 6.08467e-05
14 *375:A *422:B1 0.000109421
15 *375:A *85:30 2.08133e-05
16 *377:A *375:B 0.000311261
17 *377:A *377:B 4.95966e-05
18 *377:A *422:B1 0.000415832
19 *378:A1 *379:A2 7.58739e-05
20 *378:A1 *417:B 0.000122098
21 *378:A1 *67:23 5.2092e-05
22 *417:A *417:C 5.62568e-05
23 *417:A *417:D 0
24 *623:A *395:A 5.04829e-06
25 *623:A *296:8 0.000114271
26 *623:A *298:27 0.000226957
27 *655:A *395:A 4.23858e-05
28 *655:A *298:27 3.73375e-05
29 *60:6 *417:D 0.000233686
30 *60:10 *380:A1 0.000197488
31 *60:10 *380:B1 0
32 *60:10 *405:A1 0.000298019
33 *60:10 *405:A2 7.56859e-06
34 *60:10 *665:A 4.19841e-05
35 *60:10 *72:10 0
36 *60:10 *298:10 0
37 *60:36 *380:A1 0.000171952
38 *60:36 *665:A 0.000180318
39 *60:52 *417:C 7.01935e-06
40 *60:52 *417:D 0.000456386
*RES
1 *534:SUM *60:6 13.8548 
2 *60:6 *60:10 13.8065 
3 *60:10 *60:12 4.5 
4 *60:12 *375:A 10.5271 
5 *60:12 *377:A 15.3257 
6 *60:10 *60:36 7.993 
7 *60:36 *623:A 14.964 
8 *60:36 *655:A 10.5271 
9 *60:6 *60:52 5.71483 
10 *60:52 *378:A1 21.3269 
11 *60:52 *417:A 11.6605 
*END

*D_NET *61 0.00367473
*CONN
*I *387:D I *D sky130_fd_sc_hd__nand4_1
*I *353:A2 I *D sky130_fd_sc_hd__a21oi_1
*I *352:X O *D sky130_fd_sc_hd__a21o_1
*CAP
1 *387:D 0.000223183
2 *353:A2 0
3 *352:X 0.000386342
4 *61:10 0.000609525
5 *387:D *435:A1 0.000160617
6 *387:D *79:14 1.43983e-05
7 *387:D *293:16 3.31733e-05
8 *387:D *313:18 0
9 *387:D *345:21 0.000127196
10 *61:10 *351:B 0
11 *61:10 *293:16 0.000961268
12 *61:10 *345:10 0.000881813
13 *61:10 *345:21 0.000214438
14 *370:A2 *61:10 6.27782e-05
*RES
1 *352:X *61:10 33.7451 
2 *61:10 *353:A2 13.7491 
3 *61:10 *387:D 19.9322 
*END

*D_NET *62 0.00168159
*CONN
*I *354:A I *D sky130_fd_sc_hd__xnor2_2
*I *353:Y O *D sky130_fd_sc_hd__a21oi_1
*CAP
1 *354:A 0.000313194
2 *353:Y 0.000313194
3 *354:A *353:B1 2.41274e-06
4 *354:A *387:C 1.4091e-06
5 *354:A *641:A 0.000174175
6 *354:A *311:36 6.93171e-05
7 *354:A *316:10 0.000130627
8 *354:A *345:10 0.00055065
9 *354:A *345:21 0.00012661
*RES
1 *353:Y *354:A 40.435 
*END

*D_NET *63 0.00203432
*CONN
*I *640:A I *D sky130_fd_sc_hd__buf_6
*I *373:A2 I *D sky130_fd_sc_hd__a221o_2
*I *370:X O *D sky130_fd_sc_hd__a21o_1
*CAP
1 *640:A 7.69559e-05
2 *373:A2 0.000168665
3 *370:X 0.000351535
4 *63:10 0.000597156
5 *373:A2 *373:B2 3.18952e-05
6 *63:10 *373:B1 0.000152166
7 *370:A1 *63:10 0.00026012
8 *373:A1 *373:A2 0.000171288
9 *630:A *640:A 5.01668e-05
10 *630:A *63:10 2.22342e-05
11 *53:29 *63:10 0.000152143
*RES
1 *370:X *63:10 23.506 
2 *63:10 *373:A2 17.3239 
3 *63:10 *640:A 15.9964 
*END

*D_NET *64 0.00380001
*CONN
*I *641:A I *D sky130_fd_sc_hd__buf_4
*I *373:B2 I *D sky130_fd_sc_hd__a221o_2
*I *371:X O *D sky130_fd_sc_hd__a21o_1
*CAP
1 *641:A 0.000207943
2 *373:B2 0.000230604
3 *371:X 0.000256189
4 *64:10 0.000694735
5 *373:B2 *354:B 6.08467e-05
6 *373:B2 *477:C1 0
7 *373:B2 *66:10 0.000282977
8 *641:A *354:B 6.08467e-05
9 *641:A *313:18 0.000247443
10 *641:A *316:10 0.000107496
11 *641:A *345:10 9.2346e-06
12 *64:10 *354:B 0.000162423
13 *64:10 *373:B1 0
14 *354:A *641:A 0.000174175
15 *370:B1 *64:10 0.000300674
16 *373:A1 *373:B2 7.74295e-05
17 *373:A2 *373:B2 3.18952e-05
18 *643:A *641:A 0.000195154
19 *643:A *64:10 0.000699945
*RES
1 *371:X *64:10 30.4624 
2 *64:10 *373:B2 16.4831 
3 *64:10 *641:A 25.962 
*END

*D_NET *65 0.000899934
*CONN
*I *373:B1 I *D sky130_fd_sc_hd__a221o_2
*I *372:X O *D sky130_fd_sc_hd__and3_4
*CAP
1 *373:B1 0.000258843
2 *372:X 0.000258843
3 *373:B1 *354:B 0
4 *370:A1 *373:B1 0.000112367
5 *372:B *373:B1 0.000114271
6 *36:18 *373:B1 3.44412e-06
7 *63:10 *373:B1 0.000152166
8 *64:10 *373:B1 0
*RES
1 *372:X *373:B1 35.5913 
*END

*D_NET *66 0.00440552
*CONN
*I *670:A I *D sky130_fd_sc_hd__buf_6
*I *663:A I *D sky130_fd_sc_hd__buf_6
*I *373:X O *D sky130_fd_sc_hd__a221o_2
*CAP
1 *670:A 0.000328887
2 *663:A 0
3 *373:X 0.000638537
4 *66:10 0.000967424
5 *670:A P[7] 4.01437e-05
6 *670:A P[8] 0
7 *670:A *426:A1 0.000287128
8 *670:A *426:A2 3.42731e-05
9 *670:A *473:B1 1.03594e-05
10 *670:A *674:A 4.19665e-06
11 *670:A *305:39 0.000250909
12 *66:10 *398:A 0.000101133
13 *66:10 *473:B1 0.000131452
14 *66:10 *477:A1 1.40978e-05
15 *66:10 *477:C1 0.000413266
16 *66:10 *299:27 5.16768e-05
17 *66:10 *303:12 0.00019423
18 *66:10 *305:39 0.000188651
19 *66:10 *339:18 0.000165481
20 *373:A1 *66:10 1.80122e-05
21 *373:B2 *66:10 0.000282977
22 *373:C1 *66:10 2.65831e-05
23 *629:A *670:A 0
24 *31:18 *670:A 7.94348e-05
25 *31:18 *66:10 0.000176667
*RES
1 *373:X *66:10 35.0077 
2 *66:10 *663:A 13.7491 
3 *66:10 *670:A 25.5794 
*END

*D_NET *67 0.00386443
*CONN
*I *388:B I *D sky130_fd_sc_hd__nand2_1
*I *375:B I *D sky130_fd_sc_hd__and2_4
*I *417:B I *D sky130_fd_sc_hd__nand4_1
*I *374:X O *D sky130_fd_sc_hd__and3_4
*CAP
1 *388:B 7.31785e-05
2 *375:B 0.000305383
3 *417:B 8.74363e-05
4 *374:X 0.000259812
5 *67:23 0.0005384
6 *67:10 0.000507086
7 *375:B *405:A1 0
8 *375:B *405:A2 0.000111708
9 *375:B *85:30 0.000207892
10 *375:B *298:27 0.000188177
11 *375:B *336:20 0.000167076
12 *388:B *336:20 0.000229754
13 *417:B *379:A2 2.82142e-05
14 *417:B *379:B1 0.000192921
15 *67:10 *379:B1 6.08467e-05
16 *67:23 *379:A2 4.51052e-05
17 *67:23 *417:C 0
18 *67:23 *418:B1 0
19 *375:A *375:B 6.08467e-05
20 *376:A2 *67:10 0.000171288
21 *377:A *375:B 0.000311261
22 *378:A1 *417:B 0.000122098
23 *378:A1 *67:23 5.2092e-05
24 *378:A2 *67:10 0.000143859
*RES
1 *374:X *67:10 20.5973 
2 *67:10 *417:B 17.6574 
3 *67:10 *67:23 8.82351 
4 *67:23 *375:B 28.735 
5 *67:23 *388:B 12.2151 
*END

*D_NET *68 0.00240853
*CONN
*I *665:A I *D sky130_fd_sc_hd__buf_6
*I *405:A1 I *D sky130_fd_sc_hd__a2111oi_4
*I *375:X O *D sky130_fd_sc_hd__and2_4
*CAP
1 *665:A 0.0003873
2 *405:A1 0.000234778
3 *375:X 0
4 *68:6 0.000622078
5 *405:A1 *405:A2 6.81008e-05
6 *405:A1 *405:B1 0
7 *405:A1 *298:27 0
8 *665:A *380:A1 0.000183479
9 *665:A *395:A 0.000335965
10 *665:A *413:A1 0
11 *665:A *85:20 0
12 *665:A *85:30 5.65046e-05
13 *375:B *405:A1 0
14 *60:10 *405:A1 0.000298019
15 *60:10 *665:A 4.19841e-05
16 *60:36 *665:A 0.000180318
*RES
1 *375:X *68:6 13.7491 
2 *68:6 *405:A1 21.3145 
3 *68:6 *665:A 26.5493 
*END

*D_NET *69 0.00232827
*CONN
*I *379:A1 I *D sky130_fd_sc_hd__o21ai_2
*I *376:Y O *D sky130_fd_sc_hd__a21oi_1
*CAP
1 *379:A1 0.00083655
2 *376:Y 0.00083655
3 *379:A1 *520:B 6.50233e-05
4 *379:A1 *626:A 0.000175789
5 *379:A1 *83:14 0.000169278
6 *379:A1 *84:14 3.92275e-05
7 *376:A2 *379:A1 6.23875e-05
8 *631:A *379:A1 0.000143467
9 *58:10 *379:A1 0
*RES
1 *376:Y *379:A1 49.3381 
*END

*D_NET *70 0.00199989
*CONN
*I *379:A2 I *D sky130_fd_sc_hd__o21ai_2
*I *377:Y O *D sky130_fd_sc_hd__nand2_1
*CAP
1 *379:A2 0.000582512
2 *377:Y 0.000582512
3 *379:A2 *418:B1 0
4 *379:A2 *493:B 0
5 *379:A2 *513:B 5.27799e-05
6 *379:A2 *234:16 0.00010695
7 *379:A2 *298:10 0.000243204
8 *379:A2 *298:27 0.000282745
9 *378:A1 *379:A2 7.58739e-05
10 *417:B *379:A2 2.82142e-05
11 *67:23 *379:A2 4.51052e-05
*RES
1 *377:Y *379:A2 46.3556 
*END

*D_NET *71 0.0016407
*CONN
*I *379:B1 I *D sky130_fd_sc_hd__o21ai_2
*I *378:Y O *D sky130_fd_sc_hd__a21oi_1
*CAP
1 *379:B1 0.000552215
2 *378:Y 0.000552215
3 *379:B1 *378:B1 1.21461e-06
4 *379:B1 *417:C 3.659e-05
5 *379:B1 *493:CIN 9.2372e-05
6 *379:B1 *513:A 0.000103412
7 *379:B1 *234:16 4.89158e-05
8 *417:B *379:B1 0.000192921
9 *67:10 *379:B1 6.08467e-05
*RES
1 *378:Y *379:B1 41.6835 
*END

*D_NET *72 0.00363283
*CONN
*I *380:B1 I *D sky130_fd_sc_hd__a21oi_4
*I *405:D1 I *D sky130_fd_sc_hd__a2111oi_4
*I *379:Y O *D sky130_fd_sc_hd__o21ai_2
*CAP
1 *380:B1 0.000112089
2 *405:D1 0.000246566
3 *379:Y 0.000724467
4 *72:10 0.00108312
5 *380:B1 *380:A1 0
6 *405:D1 *405:B1 4.03749e-05
7 *405:D1 *405:C1 4.97044e-05
8 *72:10 *493:A 5.78902e-05
9 *72:10 *503:B 0.000251944
10 *72:10 *503:CIN 0.000295187
11 *72:10 *504:CIN 0
12 *72:10 *534:B 0.000140311
13 *72:10 *331:59 0.000631172
14 *60:10 *380:B1 0
15 *60:10 *72:10 0
*RES
1 *379:Y *72:10 36.3872 
2 *72:10 *405:D1 20.0427 
3 *72:10 *380:B1 16.4116 
*END

*D_NET *73 0.00293297
*CONN
*I *396:B I *D sky130_fd_sc_hd__xnor2_1
*I *384:A2 I *D sky130_fd_sc_hd__o21ai_1
*I *380:Y O *D sky130_fd_sc_hd__a21oi_4
*CAP
1 *396:B 0
2 *384:A2 0.000165337
3 *380:Y 0.000910677
4 *73:12 0.00107601
5 *384:A2 *385:A1 2.23108e-05
6 *73:12 *381:A 4.47354e-05
7 *73:12 *382:B1 1.37566e-05
8 *73:12 *384:B1 3.44412e-06
9 *73:12 *417:D 3.99086e-06
10 *73:12 *421:A2 5.5904e-05
11 *73:12 *423:A 0.000164815
12 *73:12 *307:16 3.94515e-05
13 *73:12 *308:12 6.08467e-05
14 *416:A *73:12 0.000150553
15 *416:B *73:12 6.50727e-05
16 *628:A *73:12 0.000134428
17 *635:A *73:12 2.16355e-05
*RES
1 *380:Y *73:12 41.5896 
2 *73:12 *384:A2 12.7697 
3 *73:12 *396:B 9.24915 
*END

*D_NET *74 0.00103408
*CONN
*I *384:A1 I *D sky130_fd_sc_hd__o21ai_1
*I *381:Y O *D sky130_fd_sc_hd__nand3_1
*CAP
1 *384:A1 0.00028177
2 *381:Y 0.00028177
3 *384:A1 *422:C1 3.17869e-05
4 *384:A1 *300:14 6.08467e-05
5 *384:A1 *300:29 6.08467e-05
6 *384:A1 *307:8 2.08133e-05
7 *384:A1 *307:24 0.00027294
8 *385:A2 *384:A1 0
9 *43:8 *384:A1 2.3301e-05
*RES
1 *381:Y *384:A1 35.3154 
*END

*D_NET *75 0.000511351
*CONN
*I *383:A2 I *D sky130_fd_sc_hd__a21oi_1
*I *382:X O *D sky130_fd_sc_hd__a21o_1
*CAP
1 *383:A2 0.000144814
2 *382:X 0.000144814
3 *383:A2 P[13] 5.04829e-06
4 *383:A2 *382:B1 0.000122098
5 *383:A2 *409:A 4.26566e-05
6 *607:A *383:A2 5.19205e-05
*RES
1 *382:X *383:A2 32.1569 
*END

*D_NET *76 0.000672858
*CONN
*I *384:B1 I *D sky130_fd_sc_hd__o21ai_1
*I *383:Y O *D sky130_fd_sc_hd__a21oi_1
*CAP
1 *384:B1 0.000159769
2 *383:Y 0.000159769
3 *384:B1 *382:B1 0
4 *384:B1 *383:A1 4.58003e-05
5 *384:B1 *409:A 0.00010623
6 *384:B1 *409:B 1.65078e-05
7 *384:B1 *307:24 7.77309e-06
8 *383:B1 *384:B1 0.000173566
9 *73:12 *384:B1 3.44412e-06
*RES
1 *383:Y *384:B1 33.0998 
*END

*D_NET *77 0.000680278
*CONN
*I *385:A1 I *D sky130_fd_sc_hd__a21o_1
*I *384:Y O *D sky130_fd_sc_hd__o21ai_1
*CAP
1 *385:A1 0.000328984
2 *384:Y 0.000328984
3 *384:A2 *385:A1 2.23108e-05
*RES
1 *384:Y *385:A1 25.3223 
*END

*D_NET *78 0.00320043
*CONN
*I *433:B I *D sky130_fd_sc_hd__nand2_4
*I *621:A I *D sky130_fd_sc_hd__buf_4
*I *386:Y O *D sky130_fd_sc_hd__a31oi_4
*CAP
1 *433:B 0
2 *621:A 8.85563e-05
3 *386:Y 0.00099019
4 *78:14 0.00107875
5 *621:A *477:B1 6.06764e-05
6 *621:A *294:12 6.08467e-05
7 *78:14 *435:A2 0.000165306
8 *78:14 *435:B1 6.04782e-05
9 *78:14 *436:B 6.08467e-05
10 *78:14 *667:A 6.08467e-05
11 *78:14 *294:12 3.31745e-05
12 *78:14 *311:36 9.22105e-05
13 *78:14 *313:18 0
14 *614:A *78:14 0.000173175
15 *629:A *621:A 4.62129e-05
16 *639:A *78:14 6.08467e-05
17 *30:22 *621:A 0.000168319
*RES
1 *386:Y *78:14 44.3867 
2 *78:14 *621:A 22.0503 
3 *78:14 *433:B 9.24915 
*END

*D_NET *79 0.00527056
*CONN
*I *637:A I *D sky130_fd_sc_hd__buf_4
*I *675:A I *D sky130_fd_sc_hd__buf_4
*I *619:A I *D sky130_fd_sc_hd__buf_4
*I *387:Y O *D sky130_fd_sc_hd__nand4_1
*CAP
1 *637:A 0
2 *675:A 0.000255449
3 *619:A 2.94708e-05
4 *387:Y 0.000397211
5 *79:31 0.00121485
6 *79:14 0.00138608
7 *619:A P[6] 6.96249e-05
8 *619:A *654:A 5.73816e-05
9 *675:A *393:A2 7.38371e-05
10 *675:A *394:B 0
11 *675:A *418:A2 0.000280263
12 *675:A *83:14 0
13 *79:14 P[6] 5.0715e-05
14 *79:14 *386:A3 0
15 *79:14 *434:B 3.31882e-05
16 *79:14 *654:A 0
17 *79:31 *389:A2 4.04463e-05
18 *79:31 *398:B 0.000110458
19 *79:31 *473:A2 0
20 *79:31 *473:B1 1.15389e-05
21 *79:31 *476:A1 0.000159894
22 *79:31 *477:A3 6.08467e-05
23 *79:31 *654:A 2.08274e-05
24 *79:31 *674:A 1.65872e-05
25 *79:31 *104:23 4.45928e-05
26 *79:31 *302:22 0.00015901
27 *387:D *79:14 1.43983e-05
28 *615:A *79:14 0.000200236
29 *618:A *675:A 0
30 *31:18 *79:31 0.000583662
*RES
1 *387:Y *79:14 28.5956 
2 *79:14 *619:A 11.0215 
3 *79:14 *79:31 22.7146 
4 *79:31 *675:A 26.3422 
5 *79:31 *637:A 9.24915 
*END

*D_NET *80 0.00131875
*CONN
*I *389:B1 I *D sky130_fd_sc_hd__a21oi_2
*I *388:Y O *D sky130_fd_sc_hd__nand2_1
*CAP
1 *389:B1 0.000307044
2 *388:Y 0.000307044
3 *389:B1 *389:A1 0.000176652
4 *389:B1 *418:A2 0.00035481
5 *389:B1 *418:B1 5.3633e-05
6 *389:B1 *302:34 7.37686e-05
7 *389:B1 *336:20 4.58003e-05
*RES
1 *388:Y *389:B1 37.6676 
*END

*D_NET *81 0.00130136
*CONN
*I *394:A I *D sky130_fd_sc_hd__nor2_4
*I *653:A I *D sky130_fd_sc_hd__buf_4
*I *389:Y O *D sky130_fd_sc_hd__a21oi_2
*CAP
1 *394:A 0.000171976
2 *653:A 0.000101638
3 *389:Y 4.82366e-05
4 *81:8 0.000321851
5 *394:A *394:B 0.000193108
6 *394:A *395:B 1.64789e-05
7 *394:A *418:A2 9.0014e-05
8 *653:A *413:A1 0.000175485
9 *81:8 *394:B 0.000127179
10 *81:8 *418:A2 5.53934e-05
*RES
1 *389:Y *81:8 15.9964 
2 *81:8 *653:A 16.691 
3 *81:8 *394:A 19.6535 
*END

*D_NET *82 0.00158138
*CONN
*I *393:A2 I *D sky130_fd_sc_hd__o21ai_4
*I *390:Y O *D sky130_fd_sc_hd__nand2_1
*CAP
1 *393:A2 0.000529854
2 *390:Y 0.000529854
3 *393:A2 *418:A2 0
4 *393:A2 *84:14 0.000227131
5 *393:A2 *302:34 0
6 *393:A2 *321:14 0.000140911
7 *393:A2 *336:20 7.97944e-05
8 *675:A *393:A2 7.38371e-05
*RES
1 *390:Y *393:A2 41.5442 
*END

*D_NET *83 0.00482176
*CONN
*I *393:A1 I *D sky130_fd_sc_hd__o21ai_4
*I *391:Y O *D sky130_fd_sc_hd__a21oi_4
*CAP
1 *393:A1 0
2 *391:Y 0.000114123
3 *83:14 0.00104025
4 *83:8 0.00115438
5 *83:14 *428:A 8.72115e-06
6 *83:14 *428:B 0.000141677
7 *83:14 *468:A 0
8 *83:14 *526:A 0.000226771
9 *83:14 *626:A 0.000226281
10 *83:14 *84:14 0.0011366
11 *83:14 *339:10 0
12 *83:14 *339:52 0
13 *379:A1 *83:14 0.000169278
14 *391:A2 *83:8 4.29314e-06
15 *391:B1 *83:14 0.000384686
16 *453:A *83:8 3.51918e-05
17 *618:A *83:14 0.000117342
18 *666:A *83:14 5.66868e-06
19 *675:A *83:14 0
20 *49:24 *83:14 5.64929e-05
*RES
1 *391:Y *83:8 15.5817 
2 *83:8 *83:14 43.3245 
3 *83:14 *393:A1 9.24915 
*END

*D_NET *84 0.00299002
*CONN
*I *393:B1 I *D sky130_fd_sc_hd__o21ai_4
*I *392:Y O *D sky130_fd_sc_hd__a21oi_4
*CAP
1 *393:B1 0
2 *392:Y 0.000602026
3 *84:14 0.000602026
4 *84:14 *321:14 0.000213968
5 *379:A1 *84:14 3.92275e-05
6 *390:B *84:14 0
7 *392:A1 *84:14 0.000169041
8 *393:A2 *84:14 0.000227131
9 *58:10 *84:14 0
10 *83:14 *84:14 0.0011366
*RES
1 *392:Y *84:14 41.1869 
2 *84:14 *393:B1 9.24915 
*END

*D_NET *85 0.00512259
*CONN
*I *664:A I *D sky130_fd_sc_hd__buf_4
*I *410:B I *D sky130_fd_sc_hd__or3_4
*I *422:A3 I *D sky130_fd_sc_hd__a311oi_2
*I *393:Y O *D sky130_fd_sc_hd__o21ai_4
*CAP
1 *664:A 0
2 *410:B 1.96723e-05
3 *422:A3 0.000204371
4 *393:Y 0.000965398
5 *85:30 0.000782664
6 *85:20 0.00152402
7 *410:B *422:B1 4.76161e-06
8 *422:A3 *422:A1 6.36477e-05
9 *422:A3 *422:B1 0.000229832
10 *422:A3 *422:C1 0.000122182
11 *422:A3 *300:29 0.000413561
12 *85:20 P[8] 0
13 *85:20 *413:A1 9.03858e-06
14 *85:20 *427:A2 0
15 *85:30 *395:A 2.57986e-05
16 *85:30 *413:A2 6.46815e-05
17 *85:30 *422:B1 0.000179085
18 *85:30 *298:27 9.06112e-05
19 *375:A *85:30 2.08133e-05
20 *375:B *85:30 0.000207892
21 *618:A *85:20 0.000138059
22 *665:A *85:20 0
23 *665:A *85:30 5.65046e-05
*RES
1 *393:Y *85:20 34.4917 
2 *85:20 *85:30 24.756 
3 *85:30 *422:A3 17.2065 
4 *85:30 *410:B 9.82786 
5 *85:20 *664:A 9.24915 
*END

*D_NET *86 0.000886574
*CONN
*I *395:B I *D sky130_fd_sc_hd__xnor2_1
*I *394:Y O *D sky130_fd_sc_hd__nor2_4
*CAP
1 *395:B 0.000331026
2 *394:Y 0.000331026
3 *395:B P[10] 3.25584e-05
4 *394:A *395:B 1.64789e-05
5 *604:A *395:B 0.000175485
*RES
1 *394:Y *395:B 27.2755 
*END

*D_NET *87 0.0022114
*CONN
*I *408:C I *D sky130_fd_sc_hd__nor3_2
*I *405:Y O *D sky130_fd_sc_hd__a2111oi_4
*CAP
1 *408:C 0.000455708
2 *405:Y 0.000455708
3 *408:C *405:B1 0.000502166
4 *408:C *405:C1 1.43848e-05
5 *408:C *414:B 0
6 *408:C *417:D 0.000101118
7 *408:C *300:29 0.000109951
8 *408:C *300:42 0.000381367
9 *408:C *308:12 7.64867e-05
10 *408:C *309:24 0.000114508
*RES
1 *405:Y *408:C 44.1723 
*END

*D_NET *88 0.000710532
*CONN
*I *408:B I *D sky130_fd_sc_hd__nor3_2
*I *406:Y O *D sky130_fd_sc_hd__nor3_1
*CAP
1 *408:B 0.000149614
2 *406:Y 0.000149614
3 *408:B *382:A2 0.000127179
4 *408:B *300:42 0.000127179
5 *408:B *308:32 0.000156946
*RES
1 *406:Y *408:B 31.5781 
*END

*D_NET *89 0.000921013
*CONN
*I *408:A I *D sky130_fd_sc_hd__nor3_2
*I *407:Y O *D sky130_fd_sc_hd__nor2_1
*CAP
1 *408:A 0.000269676
2 *407:Y 0.000269676
3 *408:A *381:A 0
4 *408:A *382:A2 0.000134469
5 *408:A *382:B1 0
6 *408:A *406:C 1.77894e-05
7 *408:A *411:A1 9.04668e-05
8 *408:A *296:8 2.16355e-05
9 *408:A *301:12 9.35846e-05
10 *408:A *301:38 7.74853e-06
11 *408:A *309:56 1.59657e-05
12 *605:A *408:A 0
*RES
1 *407:Y *408:A 34.3456 
*END

*D_NET *90 0.00161896
*CONN
*I *409:A I *D sky130_fd_sc_hd__xor2_1
*I *408:Y O *D sky130_fd_sc_hd__nor3_2
*CAP
1 *409:A 0.000649011
2 *408:Y 0.000649011
3 *409:A P[13] 2.03126e-05
4 *409:A *382:B1 0
5 *409:A *409:B 0
6 *383:A2 *409:A 4.26566e-05
7 *384:B1 *409:A 0.00010623
8 *607:A *409:A 0.000151741
*RES
1 *408:Y *409:A 39.7845 
*END

*D_NET *91 0.000884283
*CONN
*I *413:A2 I *D sky130_fd_sc_hd__o21ai_2
*I *410:X O *D sky130_fd_sc_hd__or3_4
*CAP
1 *413:A2 0.000219963
2 *410:X 0.000219963
3 *413:A2 *410:A 9.29777e-05
4 *413:A2 *412:B 5.6562e-05
5 *413:A2 *413:B1 0.000172306
6 *413:A2 *414:B 5.78282e-05
7 *85:30 *413:A2 6.46815e-05
*RES
1 *410:X *413:A2 34.2062 
*END

*D_NET *92 0.000749789
*CONN
*I *412:B I *D sky130_fd_sc_hd__nand2b_1
*I *411:Y O *D sky130_fd_sc_hd__o21ai_0
*CAP
1 *412:B 0.000248454
2 *411:Y 0.000248454
3 *412:B *410:A 1.56314e-05
4 *412:B *411:A2 0.000165983
5 *412:B *296:8 1.47046e-05
6 *413:A2 *412:B 5.6562e-05
*RES
1 *411:Y *412:B 32.7228 
*END

*D_NET *93 0.000594659
*CONN
*I *413:B1 I *D sky130_fd_sc_hd__o21ai_2
*I *412:Y O *D sky130_fd_sc_hd__nand2b_1
*CAP
1 *413:B1 0.000154041
2 *412:Y 0.000154041
3 *413:B1 *380:A1 0
4 *413:B1 *413:A1 0.000114271
5 *413:A2 *413:B1 0.000172306
*RES
1 *412:Y *413:B1 32.4086 
*END

*D_NET *94 0.00077758
*CONN
*I *414:B I *D sky130_fd_sc_hd__xnor2_1
*I *413:Y O *D sky130_fd_sc_hd__o21ai_2
*CAP
1 *414:B 0.000271482
2 *413:Y 0.000271482
3 *414:B P[12] 0
4 *414:B P[13] 0.000127179
5 *414:B *411:A2 1.59362e-06
6 *414:B *300:42 0
7 *408:C *414:B 0
8 *413:A2 *414:B 5.78282e-05
9 *606:A *414:B 4.80148e-05
*RES
1 *413:Y *414:B 35.452 
*END

*D_NET *95 0.00463654
*CONN
*I *417:D I *D sky130_fd_sc_hd__nand4_1
*I *422:A2 I *D sky130_fd_sc_hd__a311oi_2
*I *416:X O *D sky130_fd_sc_hd__and3_1
*CAP
1 *417:D 0.00112442
2 *422:A2 0.000206276
3 *416:X 0.000111577
4 *95:6 0.00144227
5 *417:D *405:B1 4.58666e-05
6 *417:D *504:A 5.71992e-05
7 *417:D *504:B 8.6464e-05
8 *417:D *504:CIN 0
9 *417:D *517:A 0.000112367
10 *417:D *534:A 6.27782e-05
11 *417:D *298:10 0.000113244
12 *417:D *309:24 0.000101118
13 *422:A2 *381:A 1.59362e-06
14 *422:A2 *423:A 3.555e-05
15 *408:C *417:D 0.000101118
16 *416:A *417:D 8.85839e-05
17 *416:A *95:6 7.07171e-05
18 *417:A *417:D 0
19 *625:A *417:D 6.5568e-05
20 *628:A *422:A2 0
21 *635:A *417:D 1.65872e-05
22 *42:19 *417:D 9.91852e-05
23 *42:19 *422:A2 0
24 *60:6 *417:D 0.000233686
25 *60:52 *417:D 0.000456386
26 *73:12 *417:D 3.99086e-06
*RES
1 *416:X *95:6 11.0817 
2 *95:6 *422:A2 22.9879 
3 *95:6 *417:D 47.2965 
*END

*D_NET *96 0.00164419
*CONN
*I *418:B1 I *D sky130_fd_sc_hd__a21oi_2
*I *417:Y O *D sky130_fd_sc_hd__nand4_1
*CAP
1 *418:B1 0.000419603
2 *417:Y 0.000419603
3 *418:B1 *417:C 0.000342892
4 *418:B1 *302:34 2.24902e-05
5 *379:A2 *418:B1 0
6 *389:B1 *418:B1 5.3633e-05
7 *48:10 *418:B1 8.29867e-05
8 *48:23 *418:B1 0.000120052
9 *48:40 *418:B1 0.00018293
10 *67:23 *418:B1 0
*RES
1 *417:Y *418:B1 40.2984 
*END

*D_NET *97 0.00277575
*CONN
*I *422:B1 I *D sky130_fd_sc_hd__a311oi_2
*I *418:Y O *D sky130_fd_sc_hd__a21oi_2
*CAP
1 *422:B1 0.000731217
2 *418:Y 0.000731217
3 *422:B1 *377:B 7.28567e-06
4 *422:B1 *418:A2 0.000209987
5 *422:B1 *422:C1 0.000157107
6 *375:A *422:B1 0.000109421
7 *377:A *422:B1 0.000415832
8 *410:B *422:B1 4.76161e-06
9 *422:A3 *422:B1 0.000229832
10 *85:30 *422:B1 0.000179085
*RES
1 *418:Y *422:B1 39.7902 
*END

*D_NET *98 0.000886404
*CONN
*I *420:A2 I *D sky130_fd_sc_hd__a21o_1
*I *419:X O *D sky130_fd_sc_hd__a21o_1
*CAP
1 *420:A2 0.000288509
2 *419:X 0.000288509
3 *420:A2 *525:B 0.0001195
4 *420:B1 *420:A2 1.41976e-05
5 *636:A *420:A2 0
6 *55:10 *420:A2 0.000175689
*RES
1 *419:X *420:A2 34.9296 
*END

*D_NET *99 0.00116135
*CONN
*I *421:A2 I *D sky130_fd_sc_hd__a21o_1
*I *420:X O *D sky130_fd_sc_hd__a21o_1
*CAP
1 *421:A2 0.000256389
2 *420:X 0.000256389
3 *421:A2 *307:16 0.000109951
4 *383:B1 *421:A2 8.36586e-06
5 *416:C *421:A2 0
6 *628:A *421:A2 0
7 *43:8 *421:A2 0.000474351
8 *73:12 *421:A2 5.5904e-05
*RES
1 *420:X *421:A2 36.3896 
*END

*D_NET *100 0.00229613
*CONN
*I *422:C1 I *D sky130_fd_sc_hd__a311oi_2
*I *421:X O *D sky130_fd_sc_hd__a21o_1
*CAP
1 *422:C1 0.000429043
2 *421:X 0.000429043
3 *422:C1 *381:A 0.000207612
4 *422:C1 *422:A1 6.55651e-05
5 *422:C1 *423:A 0.000508074
6 *422:C1 *300:14 1.2495e-05
7 *422:C1 *300:29 1.94912e-05
8 *422:C1 *307:8 0.000301926
9 *384:A1 *422:C1 3.17869e-05
10 *422:A3 *422:C1 0.000122182
11 *422:B1 *422:C1 0.000157107
12 *634:A *422:C1 1.18084e-05
*RES
1 *421:X *422:C1 42.5309 
*END

*D_NET *101 0.00277737
*CONN
*I *423:A I *D sky130_fd_sc_hd__xnor2_1
*I *422:Y O *D sky130_fd_sc_hd__a311oi_2
*CAP
1 *423:A 0.000661042
2 *422:Y 0.000661042
3 *423:A *300:14 6.08467e-05
4 *416:A *423:A 0.000222149
5 *416:B *423:A 0.00023805
6 *422:A2 *423:A 3.555e-05
7 *422:C1 *423:A 0.000508074
8 *608:A *423:A 7.98599e-05
9 *628:A *423:A 0.000145938
10 *73:12 *423:A 0.000164815
*RES
1 *422:Y *423:A 48.9932 
*END

*D_NET *102 0.00192723
*CONN
*I *427:A2 I *D sky130_fd_sc_hd__a21oi_2
*I *426:X O *D sky130_fd_sc_hd__a21o_1
*CAP
1 *427:A2 0.000434575
2 *426:X 0.000434575
3 *427:A2 P[8] 6.87698e-05
4 *427:A2 *426:A2 1.2366e-05
5 *427:A2 *426:B1 7.14746e-05
6 *427:A2 *427:A1 0.000263691
7 *427:A2 *428:B 0.000117376
8 *427:A2 *475:A 2.01653e-05
9 *427:A2 *476:A1 0.000275843
10 *427:A2 *302:34 1.9503e-05
11 *427:A2 *339:52 0.000208893
12 *618:A *427:A2 0
13 *85:20 *427:A2 0
*RES
1 *426:X *427:A2 41.3275 
*END

*D_NET *103 0.000923442
*CONN
*I *428:B I *D sky130_fd_sc_hd__xnor2_1
*I *427:Y O *D sky130_fd_sc_hd__a21oi_2
*CAP
1 *428:B 0.000240277
2 *427:Y 0.000240277
3 *428:B *428:A 0.000177431
4 *428:B *302:34 6.40388e-06
5 *427:A2 *428:B 0.000117376
6 *83:14 *428:B 0.000141677
*RES
1 *427:Y *428:B 33.1026 
*END

*D_NET *104 0.00244744
*CONN
*I *654:A I *D sky130_fd_sc_hd__buf_6
*I *473:A2 I *D sky130_fd_sc_hd__a21o_1
*I *474:A2 I *D sky130_fd_sc_hd__a2111oi_2
*I *433:Y O *D sky130_fd_sc_hd__nand2_4
*CAP
1 *654:A 0.000239064
2 *473:A2 2.09545e-05
3 *474:A2 6.26615e-05
4 *433:Y 6.29419e-05
5 *104:23 0.000401199
6 *104:8 0.000266785
7 *474:A2 *398:B 0.000221994
8 *654:A P[6] 0.000166523
9 *654:A *433:A 8.36586e-06
10 *654:A *434:B 5.69404e-05
11 *654:A *302:22 4.66492e-05
12 *104:8 *294:12 2.23108e-05
13 *104:23 P[6] 2.41274e-06
14 *104:23 *398:B 0.000128094
15 *104:23 *473:A1 6.27782e-05
16 *104:23 *473:B1 6.08467e-05
17 *104:23 *302:22 0.000110458
18 *619:A *654:A 5.73816e-05
19 *629:A *474:A2 0.000218503
20 *629:A *104:23 0.000134976
21 *30:22 *654:A 3.01813e-05
22 *79:14 *654:A 0
23 *79:31 *473:A2 0
24 *79:31 *654:A 2.08274e-05
25 *79:31 *104:23 4.45928e-05
*RES
1 *433:Y *104:8 15.0271 
2 *104:8 *474:A2 17.6574 
3 *104:8 *104:23 9.54971 
4 *104:23 *473:A2 9.82786 
5 *104:23 *654:A 26.7574 
*END

*D_NET *105 0.000779937
*CONN
*I *436:A I *D sky130_fd_sc_hd__xnor2_2
*I *435:Y O *D sky130_fd_sc_hd__a21oi_4
*CAP
1 *436:A 0.000210025
2 *435:Y 0.000210025
3 *436:A *435:A1 0.000164815
4 *436:A *435:B1 9.75356e-05
5 *436:A *293:16 0
6 *436:A *313:18 9.75356e-05
*RES
1 *435:Y *436:A 32.465 
*END

*D_NET *106 0.00259345
*CONN
*I *477:A2 I *D sky130_fd_sc_hd__a311o_1
*I *474:C1 I *D sky130_fd_sc_hd__a2111oi_2
*I *472:Y O *D sky130_fd_sc_hd__inv_1
*CAP
1 *477:A2 0.000151192
2 *474:C1 8.0137e-05
3 *472:Y 0.000294215
4 *106:12 0.000525544
5 *474:C1 *474:B1 1.82679e-05
6 *474:C1 *474:D1 1.02267e-05
7 *474:C1 *302:34 0.000156076
8 *477:A2 *398:B 0.000322581
9 *477:A2 *477:A3 0.000192785
10 *477:A2 *302:34 9.43286e-05
11 *106:12 *477:A3 0.000169817
12 *106:12 *294:12 0.000317417
13 *106:12 *336:20 0.000164842
14 *49:14 *477:A2 9.60216e-05
*RES
1 *472:Y *106:12 25.1006 
2 *106:12 *474:C1 11.6605 
3 *106:12 *477:A2 25.0964 
*END

*D_NET *107 0.00199698
*CONN
*I *477:A3 I *D sky130_fd_sc_hd__a311o_1
*I *473:X O *D sky130_fd_sc_hd__a21o_1
*CAP
1 *477:A3 0.000382564
2 *473:X 0.000382564
3 *477:A3 *398:B 0.000309454
4 *477:A3 *473:B1 0.000148017
5 *477:A3 *477:A1 2.16355e-05
6 *477:A3 *477:C1 6.50586e-05
7 *477:A3 *336:20 6.20572e-05
8 *477:A2 *477:A3 0.000192785
9 *629:A *477:A3 1.19513e-05
10 *31:18 *477:A3 7.1745e-05
11 *49:14 *477:A3 0.000118485
12 *79:31 *477:A3 6.08467e-05
13 *106:12 *477:A3 0.000169817
*RES
1 *473:X *477:A3 42.0622 
*END

*D_NET *108 0.00111592
*CONN
*I *477:B1 I *D sky130_fd_sc_hd__a311o_1
*I *474:Y O *D sky130_fd_sc_hd__a2111oi_2
*CAP
1 *477:B1 0.000124818
2 *474:Y 0.000124818
3 *621:A *477:B1 6.06764e-05
4 *629:A *477:B1 0.000408914
5 *30:22 *477:B1 0.000363516
6 *54:25 *477:B1 3.31733e-05
*RES
1 *474:Y *477:B1 35.1438 
*END

*D_NET *109 0.00236192
*CONN
*I *476:A1 I *D sky130_fd_sc_hd__mux2_4
*I *475:Y O *D sky130_fd_sc_hd__nor2_1
*CAP
1 *476:A1 0.000441758
2 *475:Y 0.000441758
3 *476:A1 *472:A 0.000156476
4 *476:A1 *476:A0 0.000205551
5 *476:A1 *299:16 1.01911e-05
6 *476:A1 *299:27 0.00035111
7 *476:A1 *305:31 0.000183713
8 *476:A1 *305:39 1.64597e-05
9 *476:A1 *339:52 0.000103004
10 *427:A2 *476:A1 0.000275843
11 *427:B1 *476:A1 1.61631e-05
12 *79:31 *476:A1 0.000159894
*RES
1 *475:Y *476:A1 43.1714 
*END

*D_NET *110 0.000798189
*CONN
*I *477:C1 I *D sky130_fd_sc_hd__a311o_1
*I *476:X O *D sky130_fd_sc_hd__mux2_4
*CAP
1 *477:C1 0.000113883
2 *476:X 0.000113883
3 *477:C1 *477:A1 4.62974e-05
4 *373:A1 *477:C1 4.58003e-05
5 *373:B2 *477:C1 0
6 *477:A3 *477:C1 6.50586e-05
7 *66:10 *477:C1 0.000413266
*RES
1 *476:X *477:C1 23.6826 
*END

*D_NET *1 0.00745307
*CONN
*I *359:A I *D sky130_fd_sc_hd__and2_4
*I *404:B I *D sky130_fd_sc_hd__and2_1
*I *662:A I *D sky130_fd_sc_hd__buf_6
*I *471:A I *D sky130_fd_sc_hd__and2_4
*I *535:X O *D sky130_fd_sc_hd__buf_8
*CAP
1 *359:A 0
2 *404:B 0.000122424
3 *662:A 3.73114e-05
4 *471:A 0.000290227
5 *535:X 0
6 *1:38 0.00131268
7 *1:19 0.00141967
8 *1:4 0.000482324
9 *404:B *479:CIN 0.000207591
10 *471:A *364:A 6.50727e-05
11 *471:A *364:B 9.72887e-05
12 *471:A *471:B 1.84293e-05
13 *471:A *485:A 6.50727e-05
14 *471:A *528:B 0.000318741
15 *471:A *535:A 7.5301e-06
16 *471:A *647:A 5.2374e-05
17 *471:A *13:16 0.00136913
18 *471:A *13:76 2.41483e-05
19 *471:A *320:12 1.00937e-05
20 *662:A *486:B 1.03403e-05
21 *1:19 *437:A 0
22 *1:19 *528:A 0.000210977
23 *1:19 *528:B 9.2346e-06
24 *1:19 *13:20 0.000179286
25 *1:19 *13:29 0.000210977
26 *1:38 *479:B 3.42702e-05
27 *1:38 *479:CIN 0.000168669
28 *1:38 *488:A 5.57677e-05
29 *1:38 *490:A 4.89251e-05
30 *1:38 *528:A 0.00035312
31 *1:38 *13:29 0.000113892
32 *1:38 *13:37 0.00015751
*RES
1 *535:X *1:4 9.24915 
2 *1:4 *471:A 25.5497 
3 *1:4 *1:19 11.7303 
4 *1:19 *662:A 14.4725 
5 *1:19 *1:38 29.1466 
6 *1:38 *404:B 12.7456 
7 *1:38 *359:A 9.24915 
*END

*D_NET *10 0.0058469
*CONN
*I *360:A I *D sky130_fd_sc_hd__and2_1
*I *651:A I *D sky130_fd_sc_hd__buf_4
*I *369:A I *D sky130_fd_sc_hd__and2_1
*I *431:A I *D sky130_fd_sc_hd__and2_1
*I *596:X O *D sky130_fd_sc_hd__dlygate4sd2_1
*CAP
1 *360:A 0
2 *651:A 0.000172106
3 *369:A 0.000183609
4 *431:A 9.17071e-05
5 *596:X 0.000279063
6 *10:31 0.000388447
7 *10:27 0.000555211
8 *10:10 0.00089325
9 *369:A *447:B 6.27718e-05
10 *369:A *497:B 0.000304859
11 *369:A *499:CIN 9.05084e-06
12 *369:A *509:A 0.000146519
13 *369:A *320:67 0.000163359
14 *431:A *431:B 6.46815e-05
15 *431:A *597:A 3.20264e-05
16 *431:A *603:A 2.58757e-05
17 *431:A *610:A 0.000223478
18 *431:A *133:12 7.94494e-05
19 *651:A *365:A 8.65358e-05
20 *651:A *509:A 0.000381591
21 *651:A *510:CIN 0.00033829
22 *651:A *324:12 6.99486e-05
23 *651:A *324:55 1.65872e-05
24 *10:10 *508:B 0.000131432
25 *10:10 *597:A 0.000177085
26 *10:10 *610:A 0.000131318
27 *10:10 *133:12 4.38058e-05
28 *10:27 *367:B 0.000501515
29 *10:27 *507:B 0.000161817
30 *10:27 *320:67 2.62709e-05
31 *10:31 *499:B 1.65872e-05
32 *10:31 *510:CIN 2.58757e-05
33 *10:31 *320:67 6.27782e-05
*RES
1 *596:X *10:10 21.2904 
2 *10:10 *431:A 18.3808 
3 *10:10 *10:27 17.4488 
4 *10:27 *10:31 5.778 
5 *10:31 *369:A 20.7386 
6 *10:31 *651:A 22.9514 
7 *10:27 *360:A 9.24915 
*END

*D_NET *319 0.016484
*CONN
*I *365:A I *D sky130_fd_sc_hd__and2_1
*I *369:B I *D sky130_fd_sc_hd__and2_1
*I *357:A I *D sky130_fd_sc_hd__and2_1
*I *424:A I *D sky130_fd_sc_hd__and2_1
*I *364:A I *D sky130_fd_sc_hd__and2_1
*I *403:A I *D sky130_fd_sc_hd__and2_1
*I *402:B I *D sky130_fd_sc_hd__and2_1
*I *646:X O *D sky130_fd_sc_hd__buf_4
*CAP
1 *365:A 0.00033485
2 *369:B 0.000281368
3 *357:A 6.67163e-05
4 *424:A 0
5 *364:A 0.000964997
6 *403:A 0
7 *402:B 0.000131089
8 *646:X 0.000291357
9 *319:69 0.0011677
10 *319:52 0.00184848
11 *319:32 0.00100024
12 *319:30 0.00265093
13 *319:21 0.0016422
14 *319:8 0.000679249
15 *357:A *325:12 4.57412e-05
16 *364:A *320:12 0
17 *365:A *469:A 5.18123e-05
18 *365:A *324:55 8.90311e-06
19 *319:8 *323:10 0.000410516
20 *319:21 *323:10 0.000373527
21 *319:21 *323:19 0.000203833
22 *364:B *364:A 6.08467e-05
23 *366:A *402:B 0.000253345
24 *366:A *319:8 0
25 *366:B *319:8 0.000377327
26 *366:B *319:21 8.36586e-06
27 *403:B *319:21 7.41203e-05
28 *443:B *364:A 7.50722e-05
29 *447:B *369:B 8.36586e-06
30 *461:B *357:A 0.000113109
31 *469:B *365:A 2.65667e-05
32 *471:A *364:A 6.50727e-05
33 *479:A *364:A 0
34 *482:B *319:21 0
35 *482:CIN *319:30 0.000107496
36 *488:B *364:A 6.93349e-05
37 *490:B *364:A 8.01777e-05
38 *492:CIN *364:A 0
39 *492:CIN *319:30 0.000194445
40 *492:CIN *319:32 0
41 *494:A *319:30 0.000271044
42 *497:B *369:B 1.21985e-05
43 *499:CIN *369:B 0.00013832
44 *501:CIN *319:52 1.47046e-05
45 *502:CIN *364:A 7.73065e-05
46 *509:A *369:B 0.00012313
47 *509:A *319:69 7.20116e-05
48 *510:B *319:69 0.000210977
49 *512:B *319:52 1.83795e-06
50 *513:A *319:52 6.08467e-05
51 *529:A *319:52 6.36477e-05
52 *532:B *365:A 4.24529e-05
53 *535:A *364:A 5.05252e-05
54 *591:A *319:8 0
55 *646:A *319:8 0
56 *651:A *365:A 8.65358e-05
57 *659:A *364:A 3.31882e-05
58 *659:A *319:30 1.03403e-05
59 *659:A *319:52 2.54369e-05
60 *9:19 *319:52 0.000161262
61 *9:19 *319:69 0.000572046
62 *12:10 *364:A 0
63 *12:66 *364:A 0
64 *13:16 *364:A 3.20069e-06
65 *13:37 *364:A 0
66 *13:37 *319:52 6.51074e-05
67 *14:8 *319:8 0.000261007
68 *14:58 *319:8 0.000167062
69 *15:27 *319:21 8.36615e-05
70 *16:44 *319:21 7.17398e-06
71 *227:14 *369:B 0.000131685
72 *227:14 *319:69 3.28525e-05
73 *230:14 *369:B 3.72914e-05
74 *234:16 *364:A 0
*RES
1 *646:X *319:8 27.6235 
2 *319:8 *402:B 17.2456 
3 *319:8 *319:21 14.637 
4 *319:21 *403:A 9.24915 
5 *319:21 *319:30 20.5686 
6 *319:30 *319:32 0.988641 
7 *319:32 *364:A 42.8129 
8 *319:32 *424:A 9.24915 
9 *319:30 *319:52 17.9161 
10 *319:52 *357:A 20.4964 
11 *319:52 *319:69 16.478 
12 *319:69 *369:B 23.4709 
13 *319:69 *365:A 21.7065 
*END

*D_NET *320 0.00973285
*CONN
*I *367:B I *D sky130_fd_sc_hd__and2_1
*I *360:B I *D sky130_fd_sc_hd__and2_1
*I *362:B I *D sky130_fd_sc_hd__and2_1
*I *361:A I *D sky130_fd_sc_hd__and2_1
*I *415:A I *D sky130_fd_sc_hd__and2_1
*I *647:X O *D sky130_fd_sc_hd__buf_4
*CAP
1 *367:B 0.000152429
2 *360:B 0
3 *362:B 0.000589059
4 *361:A 1.06924e-05
5 *415:A 0
6 *647:X 0.00055927
7 *320:67 0.000426064
8 *320:38 0.0013966
9 *320:27 0.000871824
10 *320:12 0.000886494
11 *362:B *430:B 7.48633e-05
12 *362:B *334:6 5.56461e-05
13 *362:B *349:23 7.06457e-05
14 *320:38 *335:24 0.000180648
15 *364:A *320:12 0
16 *364:B *320:12 0.000166841
17 *369:A *320:67 0.000163359
18 *447:B *320:67 0
19 *471:A *320:12 1.00937e-05
20 *479:A *320:12 1.77537e-06
21 *479:A *320:27 1.62054e-05
22 *486:A *320:38 6.92705e-05
23 *497:CIN *367:B 5.84505e-05
24 *498:B *320:38 6.50586e-05
25 *498:CIN *362:B 0.000116986
26 *499:B *320:67 0.000522345
27 *499:CIN *320:67 1.25464e-05
28 *528:B *320:12 0.000127179
29 *528:B *320:27 7.50722e-05
30 *531:B *320:38 0.000122378
31 *531:B *320:67 0.000120894
32 *535:A *320:12 0.000415244
33 *647:A *320:12 2.81515e-05
34 *661:A *362:B 0
35 *2:25 *320:12 1.47102e-05
36 *10:27 *367:B 0.000501515
37 *10:27 *320:67 2.62709e-05
38 *10:31 *320:67 6.27782e-05
39 *11:39 *320:67 0
40 *11:54 *320:67 3.87022e-06
41 *12:33 *361:A 3.75603e-05
42 *12:33 *320:27 0.000367713
43 *12:33 *320:38 4.82966e-05
44 *12:44 *361:A 4.80635e-06
45 *12:44 *320:38 0.00128144
46 *13:16 *320:12 1.41291e-05
47 *144:20 *362:B 3.67528e-06
*RES
1 *647:X *320:12 25.3282 
2 *320:12 *415:A 13.7491 
3 *320:12 *320:27 11.1011 
4 *320:27 *361:A 9.82786 
5 *320:27 *320:38 22.4161 
6 *320:38 *362:B 33.789 
7 *320:38 *320:67 16.567 
8 *320:67 *360:B 9.24915 
9 *320:67 *367:B 14.964 
*END

*D_NET *322 0.000474106
*CONN
*I *676:A I *D sky130_fd_sc_hd__buf_6
*I *437:A I *D sky130_fd_sc_hd__and2_4
*I *649:X O *D sky130_fd_sc_hd__buf_6
*CAP
1 *676:A 9.90757e-05
2 *437:A 0.000137977
3 *649:X 0
4 *322:4 0.000237053
5 *499:A *437:A 0
6 *1:19 *437:A 0
*RES
1 *649:X *322:4 9.24915 
2 *322:4 *437:A 21.3269 
3 *322:4 *676:A 11.6605 
*END

*D_NET *323 0.00589673
*CONN
*I *464:A I *D sky130_fd_sc_hd__and2_1
*I *444:A I *D sky130_fd_sc_hd__and2_1
*I *456:A I *D sky130_fd_sc_hd__and2_1
*I *650:X O *D sky130_fd_sc_hd__buf_4
*CAP
1 *464:A 0.000913108
2 *444:A 0
3 *456:A 0
4 *650:X 0.000402757
5 *323:19 0.00119119
6 *323:10 0.000680836
7 *366:A *323:10 0
8 *463:B *323:10 0
9 *482:A *464:A 0.0002038
10 *482:A *323:19 4.00757e-05
11 *482:B *323:19 0
12 *482:CIN *464:A 0.000115147
13 *484:A *323:10 1.67286e-05
14 *484:CIN *323:10 0.000470274
15 *494:CIN *464:A 4.12085e-05
16 *496:B *323:10 1.36691e-05
17 *496:B *323:19 3.89332e-06
18 *505:CIN *323:19 1.5714e-05
19 *506:B *464:A 0.00018323
20 *506:B *323:19 0.000118017
21 *506:CIN *464:A 0.000323535
22 *7:16 *323:19 1.94615e-05
23 *7:20 *323:19 0.000156206
24 *319:8 *323:10 0.000410516
25 *319:21 *323:10 0.000373527
26 *319:21 *323:19 0.000203833
*RES
1 *650:X *323:10 30.0107 
2 *323:10 *456:A 13.7491 
3 *323:10 *323:19 9.72179 
4 *323:19 *444:A 13.7491 
5 *323:19 *464:A 33.9906 
*END

*D_NET *332 0.002458
*CONN
*I *465:A I *D sky130_fd_sc_hd__and2_1
*I *457:A I *D sky130_fd_sc_hd__and2_1
*I *446:A I *D sky130_fd_sc_hd__and2_1
*I *659:X O *D sky130_fd_sc_hd__buf_4
*CAP
1 *465:A 0.00020513
2 *457:A 0
3 *446:A 5.05054e-05
4 *659:X 0
5 *332:6 0.000139455
6 *332:4 0.000294079
7 *446:B *446:A 0.000110297
8 *483:A *465:A 2.3939e-05
9 *483:B *465:A 4.49758e-05
10 *494:A *465:A 7.98748e-05
11 *503:A *465:A 0.000575481
12 *504:CIN *465:A 0.000174205
13 *659:A *332:6 4.89392e-05
14 *6:30 *446:A 0.000256146
15 *6:30 *332:6 0.000352567
16 *7:53 *446:A 6.27332e-05
17 *7:53 *332:6 3.96696e-05
*RES
1 *659:X *332:4 9.24915 
2 *332:4 *332:6 4.05102 
3 *332:6 *446:A 12.191 
4 *332:6 *457:A 9.24915 
5 *332:4 *465:A 28.3862 
*END

*D_NET *333 0.000905772
*CONN
*I *458:A I *D sky130_fd_sc_hd__and2_1
*I *449:A I *D sky130_fd_sc_hd__and2_1
*I *660:X O *D sky130_fd_sc_hd__buf_4
*CAP
1 *458:A 6.65607e-05
2 *449:A 7.98663e-05
3 *660:X 0.000118989
4 *333:8 0.000265416
5 *467:A *333:8 6.57318e-05
6 *494:CIN *458:A 4.86511e-05
7 *494:CIN *333:8 1.7387e-05
8 *503:CIN *458:A 0.00017419
9 *503:CIN *333:8 3.25494e-05
10 *8:31 *449:A 3.64303e-05
*RES
1 *660:X *333:8 17.2421 
2 *333:8 *449:A 15.5817 
3 *333:8 *458:A 16.8269 
*END

*D_NET *334 0.000804267
*CONN
*I *430:B I *D sky130_fd_sc_hd__and2_1
*I *466:B I *D sky130_fd_sc_hd__and2_4
*I *661:X O *D sky130_fd_sc_hd__buf_4
*CAP
1 *430:B 0.000152986
2 *466:B 0
3 *661:X 6.90821e-05
4 *334:6 0.000222068
5 *430:B *349:23 0.000159322
6 *334:6 *349:23 6.50727e-05
7 *362:B *430:B 7.48633e-05
8 *362:B *334:6 5.56461e-05
9 *498:CIN *430:B 0
10 *661:A *430:B 0
11 *144:20 *430:B 5.22654e-06
*RES
1 *661:X *334:6 11.6364 
2 *334:6 *466:B 9.24915 
3 *334:6 *430:B 23.1595 
*END

*D_NET *325 0.00564273
*CONN
*I *468:A I *D sky130_fd_sc_hd__and2_1
*I *451:A I *D sky130_fd_sc_hd__and2_1
*I *459:A I *D sky130_fd_sc_hd__and2_1
*I *357:B I *D sky130_fd_sc_hd__and2_1
*I *652:X O *D sky130_fd_sc_hd__buf_4
*CAP
1 *468:A 0.000309141
2 *451:A 0.000145164
3 *459:A 7.29698e-05
4 *357:B 0
5 *652:X 0.000266585
6 *325:42 0.000632122
7 *325:27 0.000695802
8 *325:12 0.000711601
9 *468:A *331:14 0.000207294
10 *325:12 *425:B 6.08467e-05
11 *325:12 *669:A 2.24576e-05
12 *357:A *325:12 4.57412e-05
13 *391:B1 *468:A 0
14 *425:A *325:12 6.08467e-05
15 *452:A *325:27 5.24737e-06
16 *452:B *468:A 0
17 *452:B *325:27 2.63049e-05
18 *461:B *325:12 1.47156e-05
19 *461:B *325:27 0.000209966
20 *487:CIN *325:12 2.45095e-05
21 *489:B *325:27 6.27718e-05
22 *501:B *459:A 7.40248e-05
23 *501:B *325:42 6.09513e-05
24 *501:CIN *459:A 0.000121579
25 *631:A *468:A 9.34396e-06
26 *652:A *325:12 0.000107496
27 *7:63 *459:A 2.21837e-05
28 *7:82 *459:A 6.08467e-05
29 *7:82 *325:27 0.000272851
30 *8:38 *451:A 0.000112367
31 *8:45 *451:A 0.000289767
32 *9:19 *325:12 0.000487161
33 *83:14 *468:A 0
34 *184:18 *459:A 7.40248e-05
35 *184:18 *325:42 8.96342e-05
36 *255:14 *468:A 6.04435e-05
37 *255:14 *325:42 6.68918e-05
38 *324:27 *325:12 0.000129489
39 *324:27 *325:27 2.95884e-05
*RES
1 *652:X *325:12 27.457 
2 *325:12 *357:B 9.24915 
3 *325:12 *325:27 14.8687 
4 *325:27 *459:A 17.0226 
5 *325:27 *325:42 5.56926 
6 *325:42 *451:A 18.3548 
7 *325:42 *468:A 22.8176 
*END

*D_NET *324 0.0053309
*CONN
*I *445:A I *D sky130_fd_sc_hd__and2_1
*I *355:B I *D sky130_fd_sc_hd__and2_1
*I *460:A I *D sky130_fd_sc_hd__and2_1
*I *452:A I *D sky130_fd_sc_hd__and2_1
*I *425:A I *D sky130_fd_sc_hd__and2_1
*I *651:X O *D sky130_fd_sc_hd__buf_4
*CAP
1 *445:A 0.000131895
2 *355:B 5.96255e-05
3 *460:A 3.04039e-05
4 *452:A 0.000126247
5 *425:A 1.98947e-05
6 *651:X 1.93962e-05
7 *324:55 0.000721758
8 *324:27 0.000509814
9 *324:12 0.000938146
10 *324:6 0.00111472
11 *355:B *355:A 4.04393e-05
12 *425:A *325:12 6.08467e-05
13 *445:A *448:A 0
14 *452:A *325:27 5.24737e-06
15 *324:6 *469:A 3.01683e-06
16 *324:12 *669:A 0.000118485
17 *324:27 *669:A 0.000158284
18 *324:27 *325:12 0.000129489
19 *324:27 *325:27 2.95884e-05
20 *324:55 *448:A 0
21 *324:55 *469:A 0.000473367
22 *365:A *324:55 8.90311e-06
23 *452:B *452:A 4.75311e-06
24 *461:B *324:27 8.14574e-05
25 *487:CIN *425:A 2.16355e-05
26 *501:CIN *452:A 5.01553e-05
27 *651:A *324:12 6.99486e-05
28 *651:A *324:55 1.65872e-05
29 *7:82 *452:A 6.27718e-05
30 *7:82 *460:A 0.000112367
31 *7:82 *324:27 4.61271e-05
32 *9:19 *355:B 0.00016553
*RES
1 *651:X *324:6 9.82786 
2 *324:6 *324:12 13.5713 
3 *324:12 *425:A 14.4725 
4 *324:12 *324:27 14.4018 
5 *324:27 *452:A 12.8179 
6 *324:27 *460:A 11.1059 
7 *324:6 *324:55 13.9865 
8 *324:55 *355:B 16.1605 
9 *324:55 *445:A 16.8269 
*END

*D_NET *11 0.00577783
*CONN
*I *652:A I *D sky130_fd_sc_hd__buf_4
*I *469:B I *D sky130_fd_sc_hd__and2_4
*I *448:B I *D sky130_fd_sc_hd__and2_4
*I *429:A I *D sky130_fd_sc_hd__and2_1
*I *362:A I *D sky130_fd_sc_hd__and2_1
*I *597:X O *D sky130_fd_sc_hd__buf_2
*CAP
1 *652:A 0.000294743
2 *469:B 1.26553e-05
3 *448:B 0.000134255
4 *429:A 1.90605e-05
5 *362:A 0.000496357
6 *597:X 0.00039184
7 *11:54 0.000672706
8 *11:39 0.000711168
9 *11:12 0.000695652
10 *362:A *429:B 7.34948e-06
11 *362:A *531:A 0.000172122
12 *362:A *335:33 0.000111568
13 *429:A *429:B 4.80635e-06
14 *448:B *498:CIN 7.49422e-05
15 *469:B *365:A 2.65667e-05
16 *469:B *469:A 6.50586e-05
17 *652:A *510:CIN 4.53941e-05
18 *652:A *226:12 6.74667e-05
19 *652:A *325:12 0.000107496
20 *11:12 *429:B 5.56461e-05
21 *11:12 *521:B 0.000148564
22 *11:12 *133:12 0.000452349
23 *11:39 *448:A 1.32509e-05
24 *11:39 *497:A 0
25 *11:39 *499:B 6.58661e-05
26 *11:39 *531:A 9.63981e-05
27 *11:39 *144:20 3.69003e-05
28 *11:39 *226:12 5.22654e-06
29 *11:39 *320:67 0
30 *11:39 *335:33 9.14834e-05
31 *11:54 *499:B 0.00011315
32 *11:54 *510:CIN 9.94463e-05
33 *11:54 *226:12 0.000313922
34 *11:54 *320:67 3.87022e-06
35 *9:19 *652:A 0.000170553
*RES
1 *597:X *11:12 30.9127 
2 *11:12 *362:A 17.2065 
3 *11:12 *429:A 9.82786 
4 *362:A *11:39 20.4599 
5 *11:39 *448:B 17.2938 
6 *11:39 *11:54 12.6286 
7 *11:54 *469:B 14.4725 
8 *11:54 *652:A 22.5417 
*END

*D_NET *335 0.00691948
*CONN
*I *399:A I *D sky130_fd_sc_hd__and2_4
*I *431:B I *D sky130_fd_sc_hd__and2_1
*I *432:B I *D sky130_fd_sc_hd__and2_1
*I *429:B I *D sky130_fd_sc_hd__and2_1
*I *430:A I *D sky130_fd_sc_hd__and2_1
*I *662:X O *D sky130_fd_sc_hd__buf_6
*CAP
1 *399:A 0
2 *431:B 9.33861e-05
3 *432:B 0
4 *429:B 8.15439e-05
5 *430:A 0
6 *662:X 0.000284272
7 *335:50 0.000285258
8 *335:33 0.00098675
9 *335:24 0.00122947
10 *335:12 0.000800407
11 *335:24 *341:18 0.000223413
12 *362:A *429:B 7.34948e-06
13 *362:A *335:33 0.000111568
14 *399:B *335:12 0.000553842
15 *429:A *429:B 4.80635e-06
16 *431:A *431:B 6.46815e-05
17 *450:B *335:24 0
18 *486:A *335:24 0.000148144
19 *488:A *335:12 5.03545e-06
20 *499:A *335:24 0.000376821
21 *500:A *335:12 4.3763e-05
22 *500:A *335:24 0
23 *500:CIN *335:12 6.27782e-05
24 *508:B *431:B 2.41274e-06
25 *521:B *431:B 0.000100956
26 *528:A *335:12 0
27 *531:A *335:24 0.000107353
28 *531:A *335:33 9.54458e-06
29 *603:A *431:B 1.80042e-05
30 *610:A *335:50 0.00011935
31 *11:12 *429:B 5.56461e-05
32 *11:39 *335:33 9.14834e-05
33 *12:44 *335:24 0.000805717
34 *133:12 *335:50 0
35 *144:20 *335:50 6.50825e-05
36 *320:38 *335:24 0.000180648
*RES
1 *662:X *335:12 27.1811 
2 *335:12 *335:24 30.0418 
3 *335:24 *430:A 9.24915 
4 *335:24 *335:33 11.6949 
5 *335:33 *429:B 12.0945 
6 *335:33 *335:50 14.5693 
7 *335:50 *432:B 9.24915 
8 *335:50 *431:B 12.191 
9 *335:12 *399:A 9.24915 
*END

*D_NET *326 0.00177106
*CONN
*I *413:A1 I *D sky130_fd_sc_hd__o21ai_2
*I *653:X O *D sky130_fd_sc_hd__buf_4
*CAP
1 *413:A1 0.00073613
2 *653:X 0.00073613
3 *413:A1 *394:B 0
4 *413:B1 *413:A1 0.000114271
5 *653:A *413:A1 0.000175485
6 *665:A *413:A1 0
7 *85:20 *413:A1 9.03858e-06
*RES
1 *653:X *413:A1 44.7787 
*END

*D_NET *336 0.00586181
*CONN
*I *674:A I *D sky130_fd_sc_hd__buf_6
*I *673:A I *D sky130_fd_sc_hd__buf_4
*I *405:A2 I *D sky130_fd_sc_hd__a2111oi_4
*I *663:X O *D sky130_fd_sc_hd__buf_6
*CAP
1 *674:A 0.00017043
2 *673:A 0
3 *405:A2 0.000184909
4 *663:X 0
5 *336:20 0.000952991
6 *336:6 0.000938512
7 *405:A2 *380:A2 0.000262495
8 *336:20 *380:A2 0.000152878
9 *336:20 *339:18 0.000247443
10 *375:B *405:A2 0.000111708
11 *375:B *336:20 0.000167076
12 *388:A *336:20 6.50586e-05
13 *388:B *336:20 0.000229754
14 *389:B1 *336:20 4.58003e-05
15 *393:A2 *336:20 7.97944e-05
16 *405:A1 *405:A2 6.81008e-05
17 *473:B1 *674:A 0.000174297
18 *473:B1 *336:20 3.20407e-05
19 *477:A3 *336:20 6.20572e-05
20 *630:A *336:20 0.000115934
21 *648:A *336:20 0.000122378
22 *670:A *674:A 4.19665e-06
23 *31:18 *674:A 0.000361716
24 *31:18 *336:20 0.000358524
25 *48:40 *336:20 6.58759e-05
26 *49:14 *336:20 2.90554e-05
27 *49:24 *336:20 0.000321455
28 *60:10 *405:A2 7.56859e-06
29 *79:31 *674:A 1.65872e-05
30 *106:12 *336:20 0.000164842
31 *303:12 *336:20 0.000111708
32 *305:8 *336:20 0.000107496
33 *305:39 *674:A 2.16355e-05
34 *321:14 *336:20 0.000107496
*RES
1 *663:X *336:6 13.7491 
2 *336:6 *336:20 33.3545 
3 *336:20 *405:A2 24.2687 
4 *336:20 *673:A 9.24915 
5 *336:6 *674:A 20.184 
*END

*D_NET *337 0.00146072
*CONN
*I *394:B I *D sky130_fd_sc_hd__nor2_4
*I *664:X O *D sky130_fd_sc_hd__buf_4
*CAP
1 *394:B 0.000419826
2 *664:X 0.000419826
3 *394:B *418:A2 5.95249e-06
4 *389:A1 *394:B 0.000192743
5 *394:A *394:B 0.000193108
6 *413:A1 *394:B 0
7 *418:A1 *394:B 4.89392e-05
8 *675:A *394:B 0
9 *81:8 *394:B 0.000127179
10 *294:12 *394:B 5.31465e-05
*RES
1 *664:X *394:B 40.5771 
*END

*D_NET *338 0.00213245
*CONN
*I *380:A1 I *D sky130_fd_sc_hd__a21oi_4
*I *665:X O *D sky130_fd_sc_hd__buf_6
*CAP
1 *380:A1 0.000632327
2 *665:X 0.000632327
3 *380:B1 *380:A1 0
4 *395:A *380:A1 0.000314881
5 *413:B1 *380:A1 0
6 *665:A *380:A1 0.000183479
7 *60:10 *380:A1 0.000197488
8 *60:36 *380:A1 0.000171952
*RES
1 *665:X *380:A1 45.7023 
*END

*D_NET *339 0.00502684
*CONN
*I *426:A2 I *D sky130_fd_sc_hd__a21o_1
*I *475:A I *D sky130_fd_sc_hd__nor2_1
*I *477:A1 I *D sky130_fd_sc_hd__a311o_1
*I *398:A I *D sky130_fd_sc_hd__xor2_2
*I *666:X O *D sky130_fd_sc_hd__buf_4
*CAP
1 *426:A2 0.000126263
2 *475:A 5.41509e-05
3 *477:A1 0.000334168
4 *398:A 0.000148722
5 *666:X 0.000123285
6 *339:52 0.000616593
7 *339:18 0.000672316
8 *339:10 0.00074889
9 *426:A2 *426:A1 3.31733e-05
10 *426:B1 *426:A2 0.000127179
11 *427:A2 *426:A2 1.2366e-05
12 *427:A2 *475:A 2.01653e-05
13 *427:A2 *339:52 0.000208893
14 *427:B1 *339:10 6.65668e-05
15 *427:B1 *339:52 0.000137137
16 *472:A *339:52 2.61429e-05
17 *475:B *475:A 2.16355e-05
18 *476:A0 *477:A1 1.41976e-05
19 *476:A1 *339:52 0.000103004
20 *477:A3 *477:A1 2.16355e-05
21 *477:C1 *477:A1 4.62974e-05
22 *666:A *339:10 0
23 *670:A *426:A2 3.42731e-05
24 *31:18 *398:A 8.92568e-06
25 *31:18 *475:A 6.27782e-05
26 *49:14 *398:A 0
27 *49:24 *339:10 0.000165521
28 *66:10 *398:A 0.000101133
29 *66:10 *477:A1 1.40978e-05
30 *66:10 *339:18 0.000165481
31 *83:14 *339:10 0
32 *83:14 *339:52 0
33 *294:12 *339:52 1.37009e-05
34 *299:16 *398:A 0.000126146
35 *299:27 *398:A 5.41377e-05
36 *299:27 *339:18 0.000153257
37 *305:39 *426:A2 4.51619e-05
38 *305:39 *339:52 0.000172003
39 *336:20 *339:18 0.000247443
*RES
1 *666:X *339:10 16.9985 
2 *339:10 *339:18 15.0196 
3 *339:18 *398:A 18.4879 
4 *339:18 *477:A1 18.9335 
5 *339:10 *339:52 21.8368 
6 *339:52 *475:A 15.584 
7 *339:52 *426:A2 17.8973 
*END

*D_NET *12 0.0131976
*CONN
*I *467:A I *D sky130_fd_sc_hd__and2_1
*I *660:A I *D sky130_fd_sc_hd__buf_4
*I *447:B I *D sky130_fd_sc_hd__and2_4
*I *661:A I *D sky130_fd_sc_hd__buf_4
*I *361:B I *D sky130_fd_sc_hd__and2_1
*I *364:B I *D sky130_fd_sc_hd__and2_1
*I *598:X O *D sky130_fd_sc_hd__buf_6
*CAP
1 *467:A 0.000261872
2 *660:A 3.37609e-05
3 *447:B 0.000275505
4 *661:A 0.000108614
5 *361:B 0
6 *364:B 0.000246826
7 *598:X 0.000267792
8 *12:66 0.00102148
9 *12:44 0.000576762
10 *12:33 0.000478742
11 *12:10 0.000699958
12 *12:8 0.00116067
13 *364:B *364:A 6.08467e-05
14 *364:B *443:B 0
15 *364:B *535:A 0.000110306
16 *364:B *320:12 0.000166841
17 *447:B *369:B 8.36586e-06
18 *447:B *447:A 6.27718e-05
19 *447:B *497:B 2.61463e-05
20 *447:B *499:CIN 4.7109e-05
21 *447:B *531:B 6.08337e-05
22 *447:B *155:16 0.000620811
23 *447:B *320:67 0
24 *467:A *503:CIN 0.000386139
25 *467:A *333:8 6.57318e-05
26 *660:A *659:A 0.000211539
27 *661:A *362:B 0
28 *661:A *430:B 0
29 *661:A *155:16 0.000195124
30 *12:8 *527:A 7.90692e-05
31 *12:8 *527:B 0.000220183
32 *12:8 *598:A 0.000258128
33 *12:10 *364:A 0
34 *12:33 *361:A 3.75603e-05
35 *12:33 *443:B 0.000220183
36 *12:33 *320:27 0.000367713
37 *12:33 *320:38 4.82966e-05
38 *12:33 *341:10 0.00115138
39 *12:44 *361:A 4.80635e-06
40 *12:44 *450:A 0
41 *12:44 *320:38 0.00128144
42 *12:44 *335:24 0.000805717
43 *12:44 *341:10 9.65932e-05
44 *12:44 *341:18 6.01574e-05
45 *12:66 *364:A 0
46 *12:66 *479:B 0.000380551
47 *12:66 *480:CIN 4.05654e-05
48 *12:66 *490:A 0.000272308
49 *12:66 *490:B 0.000239591
50 *12:66 *527:B 0
51 *369:A *447:B 6.27718e-05
52 *467:B *467:A 0.000223693
53 *471:A *364:B 9.72887e-05
54 *3:8 *364:B 0
55 *3:21 *364:B 0
56 *3:21 *12:10 0
57 *6:30 *660:A 9.50523e-05
*RES
1 *598:X *12:8 21.1278 
2 *12:8 *12:10 3.493 
3 *12:10 *364:B 21.4861 
4 *12:10 *12:33 18.5821 
5 *12:33 *361:B 9.24915 
6 *12:33 *12:44 19.1126 
7 *12:44 *661:A 17.2421 
8 *12:44 *447:B 24.1999 
9 *12:8 *12:66 22.5946 
10 *12:66 *660:A 16.1364 
11 *12:66 *467:A 23.8862 
*END

*D_NET *341 0.00564219
*CONN
*I *450:A I *D sky130_fd_sc_hd__and2_4
*I *677:A I *D sky130_fd_sc_hd__buf_4
*I *447:A I *D sky130_fd_sc_hd__and2_4
*I *668:X O *D sky130_fd_sc_hd__buf_6
*CAP
1 *450:A 2.06324e-05
2 *677:A 0.000201741
3 *447:A 3.98622e-05
4 *668:X 0.000425434
5 *341:18 0.00102898
6 *341:10 0.00123344
7 *443:B *341:10 4.56667e-05
8 *447:B *447:A 6.27718e-05
9 *479:A *341:10 6.36477e-05
10 *485:CIN *677:A 5.71992e-05
11 *485:CIN *341:18 0.000444133
12 *499:A *341:18 0
13 *510:A *677:A 0.000270608
14 *2:25 *341:10 7.29131e-05
15 *2:29 *341:10 0.000120546
16 *12:33 *341:10 0.00115138
17 *12:44 *450:A 0
18 *12:44 *341:10 9.65932e-05
19 *12:44 *341:18 6.01574e-05
20 *155:16 *447:A 2.30636e-05
21 *335:24 *341:18 0.000223413
*RES
1 *668:X *341:10 26.6589 
2 *341:10 *341:18 21.6273 
3 *341:18 *447:A 15.0271 
4 *341:18 *677:A 20.1489 
5 *341:10 *450:A 9.82786 
*END

*D_NET *342 0.00487071
*CONN
*I *441:A I *D sky130_fd_sc_hd__and2_1
*I *445:B I *D sky130_fd_sc_hd__and2_1
*I *448:A I *D sky130_fd_sc_hd__and2_4
*I *669:X O *D sky130_fd_sc_hd__buf_6
*CAP
1 *441:A 0.000304332
2 *445:B 8.86349e-05
3 *448:A 0.000633231
4 *669:X 0.000396502
5 *342:14 0.000881821
6 *342:10 0.00086079
7 *448:A *349:32 0
8 *445:A *448:A 0
9 *497:A *448:A 0.000174694
10 *497:CIN *448:A 2.47163e-05
11 *514:A *441:A 9.78334e-05
12 *514:A *342:10 0.000307799
13 *11:39 *448:A 1.32509e-05
14 *226:12 *448:A 0.00108711
15 *324:55 *448:A 0
16 *329:16 *448:A 0
*RES
1 *669:X *342:10 23.3703 
2 *342:10 *342:14 8.40826 
3 *342:14 *448:A 40.1848 
4 *342:14 *445:B 11.0817 
5 *342:10 *441:A 20.6261 
*END

*D_NET *13 0.0113735
*CONN
*I *450:B I *D sky130_fd_sc_hd__and2_4
*I *437:B I *D sky130_fd_sc_hd__and2_4
*I *399:B I *D sky130_fd_sc_hd__and2_4
*I *424:B I *D sky130_fd_sc_hd__and2_1
*I *659:A I *D sky130_fd_sc_hd__buf_4
*I *415:B I *D sky130_fd_sc_hd__and2_1
*I *599:X O *D sky130_fd_sc_hd__buf_2
*CAP
1 *450:B 0.000196099
2 *437:B 0
3 *399:B 0.000533319
4 *424:B 0
5 *659:A 0.000589071
6 *415:B 0
7 *599:X 0.000935312
8 *13:76 0.000399653
9 *13:37 0.00119714
10 *13:29 0.00125458
11 *13:20 0.000156868
12 *13:16 0.00118254
13 *399:B *488:CIN 1.75419e-05
14 *399:B *501:A 7.68216e-06
15 *399:B *335:12 0.000553842
16 *450:B *485:A 2.82583e-05
17 *450:B *499:A 0
18 *450:B *335:24 0
19 *659:A *364:A 3.31882e-05
20 *659:A *490:B 9.02651e-05
21 *659:A *492:CIN 0.000165455
22 *659:A *529:A 0
23 *659:A *184:18 0.000112361
24 *659:A *319:30 1.03403e-05
25 *659:A *319:52 2.54369e-05
26 *659:A *332:6 4.89392e-05
27 *13:16 *364:A 3.20069e-06
28 *13:16 *535:A 0.000124868
29 *13:16 *599:A 1.43848e-05
30 *13:16 *320:12 1.41291e-05
31 *13:20 *528:B 0.000182869
32 *13:29 *528:B 0.000305777
33 *13:37 *364:A 0
34 *13:37 *490:CIN 0
35 *13:37 *492:CIN 0.000203126
36 *13:37 *513:A 5.04829e-06
37 *13:37 *528:B 0.000204259
38 *13:37 *529:A 3.07159e-05
39 *13:37 *234:16 0.000149643
40 *13:37 *319:52 6.51074e-05
41 *13:76 *485:A 0.000135103
42 *471:A *13:16 0.00136913
43 *471:A *13:76 2.41483e-05
44 *647:A *13:16 2.52287e-06
45 *658:A *659:A 2.41827e-05
46 *660:A *659:A 0.000211539
47 *1:19 *13:20 0.000179286
48 *1:19 *13:29 0.000210977
49 *1:38 *13:29 0.000113892
50 *1:38 *13:37 0.00015751
51 *2:25 *13:16 7.61168e-06
52 *4:14 *13:16 1.374e-05
53 *6:30 *659:A 7.20425e-05
54 *7:53 *659:A 1.0759e-05
*RES
1 *599:X *13:16 37.9143 
2 *13:16 *13:20 7.57775 
3 *13:20 *415:B 13.7491 
4 *13:20 *13:29 5.98452 
5 *13:29 *13:37 23.5734 
6 *13:37 *659:A 34.9935 
7 *13:37 *424:B 9.24915 
8 *13:29 *399:B 25.227 
9 *13:16 *13:76 6.26943 
10 *13:76 *437:B 9.24915 
11 *13:76 *450:B 22.6049 
*END

*D_NET *14 0.00504626
*CONN
*I *366:B I *D sky130_fd_sc_hd__and2_4
*I *650:A I *D sky130_fd_sc_hd__buf_4
*I *363:B I *D sky130_fd_sc_hd__and2_4
*I *397:B I *D sky130_fd_sc_hd__and2_4
*I *471:B I *D sky130_fd_sc_hd__and2_4
*I *439:A I *D sky130_fd_sc_hd__and2_4
*I *600:X O *D sky130_fd_sc_hd__buf_8
*CAP
1 *366:B 0.000219507
2 *650:A 0
3 *363:B 0.000123484
4 *397:B 0
5 *471:B 0.000126797
6 *439:A 2.06324e-05
7 *600:X 0.000180095
8 *14:58 0.000308672
9 *14:40 0.000249772
10 *14:23 0.000371097
11 *14:12 0.000442476
12 *14:8 0.000573093
13 *363:B *480:CIN 0.000151309
14 *366:B *319:8 0.000377327
15 *366:B *319:21 8.36586e-06
16 *471:B *527:A 5.92192e-05
17 *471:B *598:A 3.18679e-05
18 *14:8 *590:A 0.000115874
19 *14:8 *591:A 0
20 *14:8 *319:8 0.000261007
21 *14:12 *590:A 6.99486e-05
22 *14:40 *443:B 7.51367e-05
23 *14:40 *527:A 0.00015324
24 *14:58 *319:8 0.000167062
25 *363:A *363:B 0.000115499
26 *442:A *14:12 5.07314e-05
27 *442:A *14:23 2.41483e-05
28 *471:A *471:B 1.84293e-05
29 *647:A *471:B 6.50727e-05
30 *2:29 *14:23 4.62705e-05
31 *3:27 *363:B 7.93392e-05
32 *4:14 *14:12 5.52748e-05
33 *4:18 *471:B 0.000170592
34 *4:18 *14:40 0.000324557
35 *4:31 *14:40 1.03594e-05
*RES
1 *600:X *14:8 20.9794 
2 *14:8 *14:12 11.8786 
3 *14:12 *439:A 9.82786 
4 *14:12 *14:23 7.44181 
5 *14:23 *471:B 18.5443 
6 *14:23 *14:40 10.4845 
7 *14:40 *397:B 9.24915 
8 *14:40 *363:B 14.4576 
9 *14:8 *14:58 3.07775 
10 *14:58 *650:A 13.7491 
11 *14:58 *366:B 21.297 
*END

*D_NET *345 0.00536912
*CONN
*I *386:A1 I *D sky130_fd_sc_hd__a31oi_4
*I *387:A I *D sky130_fd_sc_hd__nand4_1
*I *667:A I *D sky130_fd_sc_hd__buf_6
*I *672:X O *D sky130_fd_sc_hd__buf_6
*CAP
1 *386:A1 0.000227018
2 *387:A 0
3 *667:A 2.86212e-05
4 *672:X 0.000699177
5 *345:21 0.000412825
6 *345:10 0.000913605
7 *352:A1 *345:10 7.00887e-05
8 *354:A *345:10 0.00055065
9 *354:A *345:21 0.00012661
10 *386:A2 *386:A1 9.55038e-05
11 *386:A2 *345:21 2.22342e-05
12 *387:D *345:21 0.000127196
13 *523:A *345:10 1.70077e-05
14 *523:B *345:10 0.000166887
15 *620:A *345:10 0.000541063
16 *641:A *345:10 9.2346e-06
17 *643:A *345:10 0.000120745
18 *37:8 *345:10 7.68538e-06
19 *61:10 *345:10 0.000881813
20 *61:10 *345:21 0.000214438
21 *78:14 *667:A 6.08467e-05
22 *311:36 *345:21 7.58687e-05
23 *313:18 *386:A1 0
24 *313:18 *345:21 0
*RES
1 *672:X *345:10 42.8891 
2 *345:10 *667:A 14.4725 
3 *345:10 *345:21 6.81502 
4 *345:21 *387:A 13.7491 
5 *345:21 *386:A1 20.3938 
*END

*D_NET *346 0.000837731
*CONN
*I *380:A2 I *D sky130_fd_sc_hd__a21oi_4
*I *673:X O *D sky130_fd_sc_hd__buf_4
*CAP
1 *380:A2 0.000211179
2 *673:X 0.000211179
3 *405:A2 *380:A2 0.000262495
4 *336:20 *380:A2 0.000152878
*RES
1 *673:X *380:A2 24.2372 
*END

*D_NET *347 0.00277786
*CONN
*I *398:B I *D sky130_fd_sc_hd__xor2_2
*I *674:X O *D sky130_fd_sc_hd__buf_6
*CAP
1 *398:B 0.000445957
2 *674:X 0.000445957
3 *473:B1 *398:B 8.8721e-05
4 *474:A2 *398:B 0.000221994
5 *474:B1 *398:B 3.13805e-06
6 *477:A2 *398:B 0.000322581
7 *477:A3 *398:B 0.000309454
8 *629:A *398:B 0.000301016
9 *49:14 *398:B 0.000102033
10 *54:25 *398:B 0.000246801
11 *79:31 *398:B 0.000110458
12 *104:23 *398:B 0.000128094
13 *302:34 *398:B 5.16502e-05
*RES
1 *674:X *398:B 47.1685 
*END

*D_NET *321 0.00233209
*CONN
*I *377:B I *D sky130_fd_sc_hd__nand2_1
*I *633:A I *D sky130_fd_sc_hd__buf_4
*I *648:X O *D sky130_fd_sc_hd__buf_4
*CAP
1 *377:B 0.000633056
2 *633:A 0
3 *648:X 0.000173397
4 *321:14 0.000806452
5 *377:B *418:A2 0.000177021
6 *321:14 *336:20 0.000107496
7 *377:A *377:B 4.95966e-05
8 *390:B *321:14 0
9 *393:A2 *321:14 0.000140911
10 *422:B1 *377:B 7.28567e-06
11 *84:14 *321:14 0.000213968
12 *302:34 *377:B 1.25708e-05
13 *302:34 *321:14 1.03403e-05
*RES
1 *648:X *321:14 24.1588 
2 *321:14 *633:A 9.24915 
3 *321:14 *377:B 20.2689 
*END

*D_NET *348 0.00249479
*CONN
*I *418:A2 I *D sky130_fd_sc_hd__a21oi_2
*I *675:X O *D sky130_fd_sc_hd__buf_4
*CAP
1 *418:A2 0.00065585
2 *675:X 0.00065585
3 *377:B *418:A2 0.000177021
4 *389:A1 *418:A2 7.23291e-06
5 *389:B1 *418:A2 0.00035481
6 *393:A2 *418:A2 0
7 *394:A *418:A2 9.0014e-05
8 *394:B *418:A2 5.95249e-06
9 *422:B1 *418:A2 0.000209987
10 *675:A *418:A2 0.000280263
11 *81:8 *418:A2 5.53934e-05
12 *302:34 *418:A2 2.41274e-06
*RES
1 *675:X *418:A2 49.9462 
*END

*D_NET *15 0.00906592
*CONN
*I *440:A I *D sky130_fd_sc_hd__and2_1
*I *455:A I *D sky130_fd_sc_hd__and2_1
*I *403:B I *D sky130_fd_sc_hd__and2_1
*I *359:B I *D sky130_fd_sc_hd__and2_4
*I *470:A I *D sky130_fd_sc_hd__and2_4
*I *443:B I *D sky130_fd_sc_hd__and2_4
*I *400:A I *D sky130_fd_sc_hd__and2_1
*I *463:A I *D sky130_fd_sc_hd__and2_1
*I *601:X O *D sky130_fd_sc_hd__buf_8
*CAP
1 *440:A 6.87409e-05
2 *455:A 0
3 *403:B 7.26945e-05
4 *359:B 0
5 *470:A 0.000333282
6 *443:B 0.000772816
7 *400:A 0
8 *463:A 0
9 *601:X 3.59766e-05
10 *15:48 0.00126404
11 *15:46 0.000493
12 *15:35 0.000504186
13 *15:27 0.000610863
14 *15:16 0.000539345
15 *15:10 0.000569281
16 *15:6 0.000503696
17 *403:B *481:B 1.46079e-05
18 *403:B *482:B 5.88662e-05
19 *403:B *319:21 7.41203e-05
20 *443:B *364:A 7.50722e-05
21 *443:B *480:A 2.84898e-06
22 *443:B *527:A 0.000122083
23 *443:B *598:A 0.000139435
24 *443:B *341:10 4.56667e-05
25 *470:A *480:B 0.000302163
26 *15:10 *496:A 5.32652e-05
27 *15:10 *496:CIN 5.69404e-05
28 *15:10 *506:A 0.000488705
29 *15:10 *16:18 0
30 *15:16 *402:A 0
31 *15:16 *496:A 6.58661e-05
32 *15:16 *16:18 0
33 *15:27 *481:B 4.3116e-06
34 *15:27 *16:44 0.000170592
35 *15:27 *319:21 8.36615e-05
36 *15:35 *482:B 1.50214e-05
37 *15:35 *16:36 6.08467e-05
38 *15:46 *490:A 0
39 *15:46 *492:A 8.17672e-05
40 *15:46 *503:A 5.04829e-06
41 *15:48 *492:A 4.92721e-05
42 *364:B *443:B 0
43 *368:B *15:35 0.000267404
44 *368:B *15:46 0.000110297
45 *456:B *15:35 0
46 *463:B *15:27 0.000110458
47 *470:B *470:A 4.87301e-05
48 *668:A *443:B 1.03403e-05
49 *2:29 *443:B 5.32581e-05
50 *3:21 *443:B 5.51617e-05
51 *4:31 *443:B 4.1835e-05
52 *4:31 *15:46 0.0003122
53 *4:31 *15:48 2.28394e-05
54 *12:33 *443:B 0.000220183
55 *14:40 *443:B 7.51367e-05
*RES
1 *601:X *15:6 9.97254 
2 *15:6 *15:10 17.5438 
3 *15:10 *15:16 9.271 
4 *15:16 *463:A 9.24915 
5 *15:16 *15:27 14.2624 
6 *15:27 *15:35 9.85313 
7 *15:35 *400:A 9.24915 
8 *15:35 *15:46 14.2624 
9 *15:46 *15:48 3.90826 
10 *15:48 *443:B 40.0206 
11 *15:48 *470:A 21.7065 
12 *15:46 *359:B 13.7491 
13 *15:27 *403:B 16.8269 
14 *15:10 *455:A 13.7491 
15 *15:6 *440:A 10.5271 
*END

*D_NET *299 0.00473599
*CONN
*I *472:A I *D sky130_fd_sc_hd__inv_1
*I *427:A1 I *D sky130_fd_sc_hd__a21oi_2
*I *476:S I *D sky130_fd_sc_hd__mux2_4
*I *626:X O *D sky130_fd_sc_hd__buf_6
*CAP
1 *472:A 8.7414e-05
2 *427:A1 0.000105639
3 *476:S 1.2064e-05
4 *626:X 0.000970895
5 *299:27 0.000351119
6 *299:16 0.00114102
7 *427:A1 *302:34 5.49983e-05
8 *427:A1 *305:31 0.000107496
9 *472:A *305:39 0.000160135
10 *472:A *339:52 2.61429e-05
11 *476:S *476:A0 0.000125905
12 *299:16 *398:A 0.000126146
13 *299:27 *398:A 5.41377e-05
14 *299:27 *305:39 2.86829e-05
15 *299:27 *339:18 0.000153257
16 *391:A2 *299:16 0
17 *427:A2 *427:A1 0.000263691
18 *476:A1 *472:A 0.000156476
19 *476:A1 *299:16 1.01911e-05
20 *476:A1 *299:27 0.00035111
21 *522:A *299:16 0.000310696
22 *522:B *299:16 8.36429e-06
23 *526:A *299:16 5.20546e-06
24 *66:10 *299:27 5.16768e-05
25 *294:12 *472:A 7.35231e-05
*RES
1 *626:X *299:16 34.6842 
2 *299:16 *476:S 14.4725 
3 *299:16 *299:27 6.81502 
4 *299:27 *427:A1 17.8002 
5 *299:27 *472:A 17.701 
*END

*D_NET *304 0.000854046
*CONN
*I *626:A I *D sky130_fd_sc_hd__buf_6
*I *631:X O *D sky130_fd_sc_hd__buf_4
*CAP
1 *626:A 0.000197871
2 *631:X 0.000197871
3 *379:A1 *626:A 0.000175789
4 *631:A *626:A 5.62332e-05
5 *83:14 *626:A 0.000226281
*RES
1 *631:X *626:A 34.3484 
*END

*D_NET *313 0.0028899
*CONN
*I *386:B1 I *D sky130_fd_sc_hd__a31oi_4
*I *640:X O *D sky130_fd_sc_hd__buf_6
*CAP
1 *386:B1 0
2 *640:X 0.000943982
3 *313:18 0.000943982
4 *313:18 *386:A1 0
5 *313:18 *436:B 0.000193492
6 *313:18 *316:10 3.31745e-05
7 *313:18 *345:21 0
8 *387:D *313:18 0
9 *435:B1 *313:18 4.48639e-05
10 *436:A *313:18 9.75356e-05
11 *639:A *313:18 5.37081e-05
12 *641:A *313:18 0.000247443
13 *78:14 *313:18 0
14 *293:16 *313:18 4.5931e-05
15 *311:36 *313:18 0.000285792
*RES
1 *640:X *313:18 45.2846 
2 *313:18 *386:B1 9.24915 
*END

*D_NET *349 0.00654583
*CONN
*I *355:A I *D sky130_fd_sc_hd__and2_1
*I *469:A I *D sky130_fd_sc_hd__and2_4
*I *358:A I *D sky130_fd_sc_hd__and2_1
*I *466:A I *D sky130_fd_sc_hd__and2_4
*I *676:X O *D sky130_fd_sc_hd__buf_6
*CAP
1 *355:A 0.000209271
2 *469:A 0.000154277
3 *358:A 0
4 *466:A 0
5 *676:X 0.00052603
6 *349:32 0.000790825
7 *349:23 0.00115496
8 *349:12 0.00125372
9 *355:B *355:A 4.04393e-05
10 *362:B *349:23 7.06457e-05
11 *365:A *469:A 5.18123e-05
12 *430:B *349:23 0.000159322
13 *448:A *349:32 0
14 *469:B *469:A 6.50586e-05
15 *497:A *349:23 0
16 *497:B *349:12 6.50727e-05
17 *498:CIN *349:12 0
18 *507:B *355:A 6.84074e-06
19 *507:B *349:32 4.10445e-05
20 *508:CIN *355:A 7.20045e-05
21 *508:CIN *469:A 0.000165521
22 *530:B *349:12 0
23 *530:B *349:23 5.0715e-05
24 *532:B *469:A 0.000136547
25 *532:B *349:32 0.000205962
26 *9:19 *355:A 9.94284e-06
27 *144:20 *349:23 6.26257e-05
28 *144:20 *349:32 6.34182e-05
29 *155:16 *349:12 0.000383703
30 *324:6 *469:A 3.01683e-06
31 *324:55 *469:A 0.000473367
32 *329:12 *469:A 0.000264612
33 *334:6 *349:23 6.50727e-05
*RES
1 *676:X *349:12 32.5878 
2 *349:12 *466:A 9.24915 
3 *349:12 *349:23 23.1249 
4 *349:23 *358:A 13.7491 
5 *349:23 *349:32 10.9675 
6 *349:32 *469:A 22.2611 
7 *349:32 *355:A 18.7569 
*END

*D_NET *350 0.00175139
*CONN
*I *669:A I *D sky130_fd_sc_hd__buf_6
*I *677:X O *D sky130_fd_sc_hd__buf_4
*CAP
1 *669:A 0.000465677
2 *677:X 0.000465677
3 *425:B *669:A 1.32845e-05
4 *487:A *669:A 0.000343894
5 *489:A *669:A 8.36586e-06
6 *500:B *669:A 0
7 *510:A *669:A 9.90152e-05
8 *522:A *669:A 5.62448e-05
9 *324:12 *669:A 0.000118485
10 *324:27 *669:A 0.000158284
11 *325:12 *669:A 2.24576e-05
*RES
1 *677:X *669:A 42.3747 
*END

*D_NET *327 0.00034054
*CONN
*I *434:B I *D sky130_fd_sc_hd__xor2_1
*I *654:X O *D sky130_fd_sc_hd__buf_6
*CAP
1 *434:B 0.000125206
2 *654:X 0.000125206
3 *386:A3 *434:B 0
4 *654:A *434:B 5.69404e-05
5 *79:14 *434:B 3.31882e-05
*RES
1 *654:X *434:B 31.2994 
*END

*D_NET *292 0.000340757
*CONN
*I *433:A I *D sky130_fd_sc_hd__nand2_4
*I *619:X O *D sky130_fd_sc_hd__buf_4
*CAP
1 *433:A 0.000131406
2 *619:X 0.000131406
3 *433:A *302:22 6.73023e-05
4 *654:A *433:A 8.36586e-06
5 *30:22 *433:A 2.2766e-06
*RES
1 *619:X *433:A 30.9913 
*END

*D_NET *340 0.000621943
*CONN
*I *436:B I *D sky130_fd_sc_hd__xnor2_2
*I *667:X O *D sky130_fd_sc_hd__buf_6
*CAP
1 *436:B 8.70562e-05
2 *667:X 8.70562e-05
3 *435:B1 *436:B 0.000193492
4 *78:14 *436:B 6.08467e-05
5 *313:18 *436:B 0.000193492
*RES
1 *667:X *436:B 31.7147 
*END

*D_NET *16 0.007664
*CONN
*I *356:A I *D sky130_fd_sc_hd__and2_4
*I *438:A I *D sky130_fd_sc_hd__and2_1
*I *454:A I *D sky130_fd_sc_hd__and2_1
*I *368:A I *D sky130_fd_sc_hd__and2_1
*I *404:A I *D sky130_fd_sc_hd__and2_1
*I *442:B I *D sky130_fd_sc_hd__and2_1
*I *462:A I *D sky130_fd_sc_hd__and2_1
*I *402:A I *D sky130_fd_sc_hd__and2_1
*I *602:X O *D sky130_fd_sc_hd__buf_8
*CAP
1 *356:A 0.000666791
2 *438:A 0.000143856
3 *454:A 0
4 *368:A 0
5 *404:A 0
6 *442:B 0.000228029
7 *462:A 0
8 *402:A 0.000207908
9 *602:X 4.36938e-05
10 *16:44 0.000600738
11 *16:36 0.000559295
12 *16:29 0.000186586
13 *16:18 0.000375369
14 *16:16 0.000231777
15 *16:14 0.000590989
16 *16:8 0.0010933
17 *356:A *505:A 0.000110212
18 *356:A *506:B 0
19 *356:A *525:B 3.22223e-05
20 *402:A *484:B 0.000126335
21 *402:A *496:A 0
22 *438:A *438:B 4.98963e-05
23 *442:B *192:14 0.000305977
24 *16:14 *440:B 0.000163359
25 *16:14 *495:A 4.80148e-05
26 *16:14 *505:A 0.000179271
27 *16:14 *506:B 0
28 *16:14 *170:16 4.48472e-05
29 *16:16 *506:A 2.03024e-05
30 *16:18 *496:CIN 0.000179271
31 *16:18 *506:A 3.38603e-05
32 *16:36 *484:CIN 7.89747e-05
33 *16:36 *496:B 6.50727e-05
34 *16:44 *481:B 8.96744e-05
35 *16:44 *319:21 7.17398e-06
36 *442:A *442:B 1.03594e-05
37 *455:B *16:36 8.39223e-05
38 *456:B *16:36 5.99527e-05
39 *463:B *402:A 8.47689e-05
40 *463:B *16:18 1.44611e-05
41 *657:A *438:A 6.08467e-05
42 *3:27 *442:B 9.4181e-05
43 *6:6 *438:A 7.92757e-06
44 *6:10 *16:14 2.53202e-05
45 *6:10 *16:16 6.84737e-05
46 *6:10 *16:18 0.000159173
47 *7:14 *16:14 3.04259e-05
48 *8:10 *16:14 4.19841e-05
49 *8:10 *16:16 7.26748e-05
50 *8:31 *16:14 0.000155293
51 *15:10 *16:18 0
52 *15:16 *402:A 0
53 *15:16 *16:18 0
54 *15:27 *16:44 0.000170592
55 *15:35 *16:36 6.08467e-05
*RES
1 *602:X *16:8 14.4725 
2 *16:8 *16:14 12.7018 
3 *16:14 *16:16 2.6625 
4 *16:16 *16:18 6.81502 
5 *16:18 *402:A 20.1489 
6 *16:18 *16:29 4.5 
7 *16:29 *462:A 9.24915 
8 *16:29 *16:36 5.71483 
9 *16:36 *16:44 18.2078 
10 *16:44 *442:B 25.7876 
11 *16:44 *404:A 9.24915 
12 *16:36 *368:A 9.24915 
13 *16:16 *454:A 13.7491 
14 *16:14 *438:A 17.2938 
15 *16:8 *356:A 25.9498 
*END

*D_NET *343 0.000627768
*CONN
*I *426:A1 I *D sky130_fd_sc_hd__a21o_1
*I *670:X O *D sky130_fd_sc_hd__buf_6
*CAP
1 *426:A1 0.000153733
2 *670:X 0.000153733
3 P[8] *426:A1 0
4 *426:A2 *426:A1 3.31733e-05
5 *670:A *426:A1 0.000287128
*RES
1 *670:X *426:A1 32.6845 
*END

*D_NET *17 0.00142651
*CONN
*I *603:A I *D sky130_fd_sc_hd__clkdlybuf4s50_1
*I *432:X O *D sky130_fd_sc_hd__and2_1
*CAP
1 *603:A 0.000533391
2 *432:X 0.000533391
3 *603:A *431:B 1.80042e-05
4 *603:A *478:A 0.000314443
5 *603:A *521:B 1.4091e-06
6 *431:A *603:A 2.58757e-05
*RES
1 *432:X *603:A 38.2278 
*END

*D_NET *18 0.000335874
*CONN
*I *604:A I *D sky130_fd_sc_hd__buf_2
*I *395:Y O *D sky130_fd_sc_hd__xnor2_1
*CAP
1 *604:A 8.01944e-05
2 *395:Y 8.01944e-05
3 *604:A *395:B 0.000175485
*RES
1 *395:Y *604:A 21.3195 
*END

*D_NET *293 0.00333968
*CONN
*I *351:A I *D sky130_fd_sc_hd__xor2_1
*I *353:A1 I *D sky130_fd_sc_hd__a21oi_1
*I *387:C I *D sky130_fd_sc_hd__nand4_1
*I *620:X O *D sky130_fd_sc_hd__buf_4
*CAP
1 *351:A 9.65877e-05
2 *353:A1 0
3 *387:C 0.00015794
4 *620:X 7.062e-05
5 *293:16 0.000578447
6 *293:6 0.000587715
7 *387:C *353:B1 2.65667e-05
8 *387:C *386:A3 7.86847e-05
9 *387:C *311:36 7.50872e-05
10 *293:16 *311:36 0.000626247
11 *293:16 *313:18 4.5931e-05
12 *354:A *387:C 1.4091e-06
13 *387:D *293:16 3.31733e-05
14 *436:A *293:16 0
15 *612:A *351:A 0
16 *639:A *293:16 0
17 *61:10 *293:16 0.000961268
*RES
1 *620:X *293:6 10.5271 
2 *293:6 *293:16 28.053 
3 *293:16 *387:C 21.4985 
4 *293:16 *353:A1 9.24915 
5 *293:6 *351:A 11.6605 
*END

*D_NET *19 0.00125447
*CONN
*I *605:A I *D sky130_fd_sc_hd__buf_2
*I *396:Y O *D sky130_fd_sc_hd__xnor2_1
*CAP
1 *605:A 0.000390269
2 *396:Y 0.000390269
3 *605:A *382:A1 2.74378e-05
4 *605:A *382:A2 2.99287e-05
5 *605:A *382:B1 0.000297776
6 *605:A *408:A 0
7 *605:A *308:32 0.000118792
*RES
1 *396:Y *605:A 37.8608 
*END

*D_NET *2 0.00386567
*CONN
*I *443:A I *D sky130_fd_sc_hd__and2_4
*I *439:B I *D sky130_fd_sc_hd__and2_4
*I *442:A I *D sky130_fd_sc_hd__and2_1
*I *649:A I *D sky130_fd_sc_hd__buf_6
*I *588:X O *D sky130_fd_sc_hd__buf_8
*CAP
1 *443:A 2.06324e-05
2 *439:B 0
3 *442:A 0.000341119
4 *649:A 0.000201891
5 *588:X 5.91905e-05
6 *2:29 0.000760644
7 *2:25 0.000986877
8 *2:6 0.000807801
9 *442:A *442:B 1.03594e-05
10 *442:A *3:27 3.0676e-05
11 *442:A *4:18 0
12 *442:A *14:12 5.07314e-05
13 *442:A *14:23 2.41483e-05
14 *649:A *166:18 7.06457e-05
15 *2:6 *166:18 9.90116e-05
16 *2:25 *479:A 2.57847e-05
17 *2:25 *528:B 0
18 *2:25 *535:A 0
19 *2:25 *13:16 7.61168e-06
20 *2:25 *320:12 1.47102e-05
21 *2:25 *341:10 7.29131e-05
22 *2:29 *443:B 5.32581e-05
23 *2:29 *668:A 6.08467e-05
24 *2:29 *14:23 4.62705e-05
25 *2:29 *341:10 0.000120546
*RES
1 *588:X *2:6 11.6364 
2 *2:6 *649:A 14.9881 
3 *2:6 *2:25 19.199 
4 *2:25 *2:29 10.7304 
5 *2:29 *442:A 26.8968 
6 *2:29 *439:B 9.24915 
7 *2:25 *443:A 9.82786 
*END

*D_NET *20 0.000334804
*CONN
*I *606:A I *D sky130_fd_sc_hd__buf_2
*I *414:Y O *D sky130_fd_sc_hd__xnor2_1
*CAP
1 *606:A 0.000143394
2 *414:Y 0.000143394
3 *606:A P[12] 0
4 *606:A *395:A 0
5 *606:A *414:B 4.80148e-05
*RES
1 *414:Y *606:A 30.8842 
*END

*D_NET *21 0.000437751
*CONN
*I *607:A I *D sky130_fd_sc_hd__buf_2
*I *409:X O *D sky130_fd_sc_hd__xor2_1
*CAP
1 *607:A 0.000113261
2 *409:X 0.000113261
3 *607:A *382:B1 7.56859e-06
4 *607:A *383:A2 5.19205e-05
5 *607:A *409:A 0.000151741
*RES
1 *409:X *607:A 30.8842 
*END

*D_NET *22 0.000997416
*CONN
*I *608:A I *D sky130_fd_sc_hd__buf_2
*I *423:Y O *D sky130_fd_sc_hd__xnor2_1
*CAP
1 *608:A 0.000458778
2 *423:Y 0.000458778
3 *608:A *423:A 7.98599e-05
*RES
1 *423:Y *608:A 27.1549 
*END

*D_NET *23 0.000618499
*CONN
*I *609:A I *D sky130_fd_sc_hd__buf_2
*I *385:X O *D sky130_fd_sc_hd__a21o_1
*CAP
1 *609:A 0.00030925
2 *385:X 0.00030925
*RES
1 *385:X *609:A 24.7918 
*END

*D_NET *24 0.00129653
*CONN
*I *610:A I *D sky130_fd_sc_hd__clkdlybuf4s50_1
*I *521:SUM O *D sky130_fd_sc_hd__ha_1
*CAP
1 *610:A 0.000231556
2 *521:SUM 0.000231556
3 *610:A *508:B 0.000304627
4 *610:A *133:12 3.30133e-05
5 *610:A *222:12 2.16355e-05
6 *610:A *335:50 0.00011935
7 *431:A *610:A 0.000223478
8 *10:10 *610:A 0.000131318
*RES
1 *521:SUM *610:A 37.113 
*END

*D_NET *25 0.000271431
*CONN
*I *611:A I *D sky130_fd_sc_hd__clkdlybuf4s50_1
*I *478:SUM O *D sky130_fd_sc_hd__fa_1
*CAP
1 *611:A 8.0942e-05
2 *478:SUM 8.0942e-05
3 *611:A *352:B1 0
4 *611:A *515:A 3.4475e-05
5 *611:A *515:B 7.50722e-05
*RES
1 *478:SUM *611:A 30.1608 
*END

*D_NET *26 0.000194401
*CONN
*I *612:A I *D sky130_fd_sc_hd__buf_2
*I *351:X O *D sky130_fd_sc_hd__xor2_1
*CAP
1 *612:A 9.72006e-05
2 *351:X 9.72006e-05
3 *612:A *351:A 0
*RES
1 *351:X *612:A 20.9096 
*END

*D_NET *27 7.15614e-05
*CONN
*I *613:A I *D sky130_fd_sc_hd__buf_2
*I *354:Y O *D sky130_fd_sc_hd__xnor2_2
*CAP
1 *613:A 3.57807e-05
2 *354:Y 3.57807e-05
*RES
1 *354:Y *613:A 19.2217 
*END

*D_NET *28 0.000718645
*CONN
*I *614:A I *D sky130_fd_sc_hd__buf_2
*I *436:Y O *D sky130_fd_sc_hd__xnor2_2
*CAP
1 *614:A 0.000248957
2 *436:Y 0.000248957
3 *614:A *435:A2 4.75557e-05
4 *614:A *78:14 0.000173175
*RES
1 *436:Y *614:A 34.6215 
*END

*D_NET *29 0.000398188
*CONN
*I *615:A I *D sky130_fd_sc_hd__buf_2
*I *434:X O *D sky130_fd_sc_hd__xor2_1
*CAP
1 *615:A 9.8976e-05
2 *434:X 9.8976e-05
3 *615:A *386:A3 0
4 *615:A *79:14 0.000200236
5 *615:A *316:10 0
*RES
1 *434:X *615:A 30.9913 
*END

*D_NET *3 0.0066295
*CONN
*I *363:A I *D sky130_fd_sc_hd__and2_4
*I *356:B I *D sky130_fd_sc_hd__and2_4
*I *470:B I *D sky130_fd_sc_hd__and2_4
*I *668:A I *D sky130_fd_sc_hd__buf_6
*I *589:X O *D sky130_fd_sc_hd__buf_8
*CAP
1 *363:A 5.5339e-05
2 *356:B 0.000974791
3 *470:B 4.28779e-05
4 *668:A 2.3451e-05
5 *589:X 0.000181896
6 *3:27 0.00146216
7 *3:21 0.000704218
8 *3:8 0.000409738
9 *356:B *481:B 0
10 *356:B *482:B 0
11 *356:B *482:CIN 0
12 *356:B *495:CIN 0.000112971
13 *356:B *504:B 0.000178151
14 *356:B *505:B 0
15 *356:B *192:14 0.00117183
16 *363:A *363:B 0.000115499
17 *470:B *470:A 4.87301e-05
18 *668:A *443:B 1.03403e-05
19 *3:8 *364:B 0
20 *3:8 *598:A 0.000357075
21 *3:8 *166:18 4.90264e-05
22 *3:21 *364:B 0
23 *3:21 *443:B 5.51617e-05
24 *3:21 *480:A 8.36586e-06
25 *3:21 *527:B 3.72133e-05
26 *3:21 *598:A 0.000203865
27 *3:21 *12:10 0
28 *3:27 *363:B 7.93392e-05
29 *3:27 *442:B 9.4181e-05
30 *3:27 *480:CIN 2.26816e-05
31 *3:27 *192:14 0.000139083
32 *442:A *3:27 3.0676e-05
33 *2:29 *668:A 6.08467e-05
*RES
1 *589:X *3:8 20.1489 
2 *3:8 *668:A 14.4725 
3 *3:8 *3:21 10.8998 
4 *3:21 *3:27 15.6475 
5 *3:27 *470:B 15.0271 
6 *3:27 *356:B 43.403 
7 *3:21 *363:A 11.1059 
*END

*D_NET *30 0.00345996
*CONN
*I *616:A I *D sky130_fd_sc_hd__buf_2
*I *398:X O *D sky130_fd_sc_hd__xor2_2
*CAP
1 *616:A 0
2 *398:X 0.000892832
3 *30:22 0.000892832
4 *30:22 P[6] 7.50722e-05
5 *30:22 P[7] 4.73037e-06
6 *30:22 *433:A 2.2766e-06
7 *30:22 *434:A 2.16355e-05
8 *30:22 *477:B1 0.000363516
9 *30:22 *621:A 0.000168319
10 *30:22 *629:A 8.77726e-05
11 *30:22 *630:A 0.000163465
12 *30:22 *654:A 3.01813e-05
13 *30:22 *53:29 0.000198737
14 *30:22 *54:25 8.18934e-05
15 *30:22 *302:8 0.000116993
16 *30:22 *302:22 0.000359708
*RES
1 *398:X *30:22 44.5083 
2 *30:22 *616:A 9.24915 
*END

*D_NET *31 0.00333781
*CONN
*I *617:A I *D sky130_fd_sc_hd__buf_2
*I *477:X O *D sky130_fd_sc_hd__a311o_1
*CAP
1 *617:A 0
2 *477:X 0.000577519
3 *31:18 0.000577519
4 *31:18 P[8] 9.87648e-05
5 *31:18 *398:A 8.92568e-06
6 *31:18 *473:B1 0.000134976
7 *31:18 *475:A 6.27782e-05
8 *31:18 *475:B 3.63221e-05
9 *31:18 *477:A3 7.1745e-05
10 *31:18 *670:A 7.94348e-05
11 *31:18 *674:A 0.000361716
12 *31:18 *49:14 1.43055e-05
13 *31:18 *66:10 0.000176667
14 *31:18 *79:31 0.000583662
15 *31:18 *303:12 0.000187289
16 *31:18 *305:39 7.66391e-06
17 *31:18 *336:20 0.000358524
*RES
1 *477:X *31:18 42.4975 
2 *31:18 *617:A 9.24915 
*END

*D_NET *32 0.00117206
*CONN
*I *618:A I *D sky130_fd_sc_hd__buf_2
*I *428:Y O *D sky130_fd_sc_hd__xnor2_1
*CAP
1 *618:A 0.000458328
2 *428:Y 0.000458328
3 *618:A P[8] 0
4 *618:A *427:A2 0
5 *618:A *675:A 0
6 *618:A *83:14 0.000117342
7 *618:A *85:20 0.000138059
*RES
1 *428:Y *618:A 39.4091 
*END

*D_NET *4 0.00513978
*CONN
*I *647:A I *D sky130_fd_sc_hd__buf_4
*I *400:B I *D sky130_fd_sc_hd__and2_1
*I *368:B I *D sky130_fd_sc_hd__and2_1
*I *397:A I *D sky130_fd_sc_hd__and2_4
*I *590:X O *D sky130_fd_sc_hd__buf_6
*CAP
1 *647:A 0.00036523
2 *400:B 0
3 *368:B 0.000107457
4 *397:A 0
5 *590:X 0.000422398
6 *4:31 0.000555505
7 *4:18 0.000710637
8 *4:14 0.00105022
9 *368:B *482:B 4.87439e-05
10 *368:B *15:35 0.000267404
11 *368:B *15:46 0.000110297
12 *647:A *471:B 6.50727e-05
13 *647:A *13:16 2.52287e-06
14 *647:A *320:12 2.81515e-05
15 *4:14 *590:A 0
16 *4:14 *599:A 7.40813e-05
17 *4:14 *13:16 1.374e-05
18 *4:14 *14:12 5.52748e-05
19 *4:18 *471:B 0.000170592
20 *4:18 *14:40 0.000324557
21 *4:31 *443:B 4.1835e-05
22 *4:31 *492:A 0.000328292
23 *4:31 *14:40 1.03594e-05
24 *4:31 *15:46 0.0003122
25 *4:31 *15:48 2.28394e-05
26 *4:31 *192:14 0
27 *442:A *4:18 0
28 *471:A *647:A 5.2374e-05
*RES
1 *590:X *4:14 26.5194 
2 *4:14 *4:18 13.3913 
3 *4:18 *397:A 13.7491 
4 *4:18 *4:31 18.5487 
5 *4:31 *368:B 13.3002 
6 *4:31 *400:B 9.24915 
7 *4:14 *647:A 15.398 
*END

*D_NET *5 0.00198201
*CONN
*I *366:A I *D sky130_fd_sc_hd__and2_4
*I *646:A I *D sky130_fd_sc_hd__buf_4
*I *591:X O *D sky130_fd_sc_hd__buf_2
*CAP
1 *366:A 0.000419172
2 *646:A 0.000184688
3 *591:X 0
4 *5:6 0.00060386
5 *366:A *402:B 0.000253345
6 *366:A *484:A 0.000151494
7 *366:A *484:B 0.000176652
8 *366:A *484:CIN 1.35317e-05
9 *366:A *319:8 0
10 *366:A *323:10 0
11 *646:A *591:A 0.000179271
12 *646:A *319:8 0
*RES
1 *591:X *5:6 13.7491 
2 *5:6 *646:A 19.3507 
3 *5:6 *366:A 26.1368 
*END

*D_NET *6 0.00717496
*CONN
*I *658:A I *D sky130_fd_sc_hd__buf_4
*I *467:B I *D sky130_fd_sc_hd__and2_1
*I *462:B I *D sky130_fd_sc_hd__and2_1
*I *463:B I *D sky130_fd_sc_hd__and2_1
*I *592:X O *D sky130_fd_sc_hd__dlygate4sd2_1
*CAP
1 *658:A 0.000232101
2 *467:B 0.000252234
3 *462:B 0
4 *463:B 0.000144456
5 *592:X 0.000214303
6 *6:30 0.00126165
7 *6:10 0.000398196
8 *6:6 0.00124536
9 *463:B *402:A 8.47689e-05
10 *463:B *484:B 2.58757e-05
11 *463:B *484:CIN 3.98606e-05
12 *463:B *496:B 5.77352e-05
13 *463:B *15:27 0.000110458
14 *463:B *16:18 1.44611e-05
15 *463:B *323:10 0
16 *467:B *467:A 0.000223693
17 *467:B *493:B 0.000143047
18 *467:B *503:CIN 5.66868e-06
19 *467:B *529:B 0.000169375
20 *658:A *529:A 2.57847e-05
21 *658:A *529:B 0.000115157
22 *658:A *659:A 2.41827e-05
23 *658:A *184:18 7.05965e-05
24 *6:6 *438:A 7.92757e-06
25 *6:6 *438:B 0.000203756
26 *6:6 *170:16 6.27718e-05
27 *6:6 *330:6 6.08467e-05
28 *6:10 *440:B 2.86829e-05
29 *6:10 *496:B 0.000203833
30 *6:10 *7:14 2.82255e-05
31 *6:10 *7:16 6.19642e-05
32 *6:10 *7:20 8.10666e-05
33 *6:10 *16:14 2.53202e-05
34 *6:10 *16:16 6.84737e-05
35 *6:10 *16:18 0.000159173
36 *6:30 *446:A 0.000256146
37 *6:30 *446:B 0.000180647
38 *6:30 *504:B 6.46815e-05
39 *6:30 *659:A 7.20425e-05
40 *6:30 *660:A 9.50523e-05
41 *6:30 *330:6 4.85806e-05
42 *6:30 *330:34 0.00025424
43 *6:30 *332:6 0.000352567
*RES
1 *592:X *6:6 14.4094 
2 *6:6 *6:10 15.0523 
3 *6:10 *463:B 18.9354 
4 *6:10 *462:B 13.7491 
5 *6:6 *6:30 20.6891 
6 *6:30 *467:B 27.9709 
7 *6:30 *658:A 15.9526 
*END

*D_NET *7 0.0117747
*CONN
*I *457:B I *D sky130_fd_sc_hd__and2_1
*I *458:B I *D sky130_fd_sc_hd__and2_1
*I *461:B I *D sky130_fd_sc_hd__and2_1
*I *460:B I *D sky130_fd_sc_hd__and2_1
*I *459:B I *D sky130_fd_sc_hd__and2_1
*I *454:B I *D sky130_fd_sc_hd__and2_1
*I *456:B I *D sky130_fd_sc_hd__and2_1
*I *455:B I *D sky130_fd_sc_hd__and2_1
*I *593:X O *D sky130_fd_sc_hd__dlygate4sd2_1
*CAP
1 *457:B 0
2 *458:B 0.000715918
3 *461:B 0.000167841
4 *460:B 0
5 *459:B 0
6 *454:B 6.26801e-05
7 *456:B 9.59435e-05
8 *455:B 0.000201604
9 *593:X 0.000386472
10 *7:82 0.000401803
11 *7:63 0.00170565
12 *7:55 0.00218761
13 *7:53 0.000466107
14 *7:20 0.000436091
15 *7:16 0.00026523
16 *7:14 0.000916585
17 *454:B *506:B 5.04829e-06
18 *455:B *16:36 8.39223e-05
19 *456:B *15:35 0
20 *456:B *16:36 5.99527e-05
21 *458:B *481:A 0.000139219
22 *458:B *483:B 4.62703e-05
23 *458:B *483:CIN 4.74857e-05
24 *458:B *494:A 1.60687e-05
25 *458:B *494:B 0.000152586
26 *458:B *504:CIN 2.72743e-05
27 *461:B *357:A 0.000113109
28 *461:B *491:B 0
29 *461:B *9:25 7.13492e-05
30 *461:B *324:27 8.14574e-05
31 *461:B *325:12 1.47156e-05
32 *461:B *325:27 0.000209966
33 *7:14 *440:B 3.52984e-05
34 *7:14 *506:B 0.000345846
35 *7:14 *16:14 3.04259e-05
36 *7:16 *506:B 9.43419e-05
37 *7:16 *323:19 1.94615e-05
38 *7:20 *496:B 0.000179286
39 *7:20 *505:CIN 2.26985e-05
40 *7:20 *323:19 0.000156206
41 *7:53 *446:A 6.27332e-05
42 *7:53 *446:B 0.000553681
43 *7:53 *659:A 1.0759e-05
44 *7:53 *330:34 7.50943e-05
45 *7:53 *332:6 3.96696e-05
46 *7:63 *459:A 2.21837e-05
47 *7:63 *481:A 5.12484e-05
48 *7:63 *490:CIN 4.22655e-05
49 *7:63 *494:A 2.85637e-05
50 *7:63 *501:CIN 0.000149255
51 *7:82 *452:A 6.27718e-05
52 *7:82 *459:A 6.08467e-05
53 *7:82 *460:A 0.000112367
54 *7:82 *501:CIN 3.26503e-05
55 *7:82 *184:18 1.88183e-05
56 *7:82 *324:27 4.61271e-05
57 *7:82 *325:27 0.000272851
58 *6:10 *7:14 2.82255e-05
59 *6:10 *7:16 6.19642e-05
60 *6:10 *7:20 8.10666e-05
*RES
1 *593:X *7:14 24.3928 
2 *7:14 *7:16 2.6625 
3 *7:16 *7:20 10.8998 
4 *7:20 *455:B 13.8789 
5 *7:20 *456:B 11.6605 
6 *7:16 *454:B 15.0271 
7 *7:14 *7:53 16.3396 
8 *7:53 *7:55 4.5 
9 *7:55 *7:63 27.3158 
10 *7:63 *459:B 9.24915 
11 *7:63 *7:82 16.6568 
12 *7:82 *460:B 9.24915 
13 *7:82 *461:B 24.5446 
14 *7:55 *458:B 28.1009 
15 *7:53 *457:B 9.24915 
*END

*D_NET *295 0.000779254
*CONN
*I *389:A1 I *D sky130_fd_sc_hd__a21oi_2
*I *622:X O *D sky130_fd_sc_hd__buf_4
*CAP
1 *389:A1 0.000118905
2 *622:X 0.000118905
3 *389:A1 *389:A2 0.000164815
4 *389:A1 *394:B 0.000192743
5 *389:A1 *418:A2 7.23291e-06
6 *389:B1 *389:A1 0.000176652
*RES
1 *622:X *389:A1 32.8239 
*END

*D_NET *294 0.003568
*CONN
*I *622:A I *D sky130_fd_sc_hd__buf_4
*I *418:A1 I *D sky130_fd_sc_hd__a21oi_2
*I *621:X O *D sky130_fd_sc_hd__buf_4
*CAP
1 *622:A 2.12792e-05
2 *418:A1 0.0001699
3 *621:X 0.00108808
4 *294:12 0.00127926
5 *418:A1 *394:B 4.89392e-05
6 *294:12 *394:B 5.31465e-05
7 *294:12 *428:A 0.000107496
8 *294:12 *472:A 7.35231e-05
9 *294:12 *473:B1 0.000156076
10 *294:12 *302:22 0.000122844
11 *294:12 *339:52 1.37009e-05
12 *621:A *294:12 6.08467e-05
13 *78:14 *294:12 3.31745e-05
14 *104:8 *294:12 2.23108e-05
15 *106:12 *294:12 0.000317417
*RES
1 *621:X *294:12 42.8493 
2 *294:12 *418:A1 22.1896 
3 *294:12 *622:A 9.82786 
*END

*D_NET *296 0.00222339
*CONN
*I *411:A1 I *D sky130_fd_sc_hd__o21ai_0
*I *422:A1 I *D sky130_fd_sc_hd__a311oi_2
*I *623:X O *D sky130_fd_sc_hd__buf_4
*CAP
1 *411:A1 0.000137968
2 *422:A1 0.000117981
3 *623:X 0.000290252
4 *296:8 0.000546201
5 *411:A1 *406:C 5.04829e-06
6 *411:A1 *411:A2 3.5063e-05
7 *411:A1 *301:12 1.90543e-05
8 *411:A1 *308:21 2.16355e-05
9 *411:A1 *308:32 5.51483e-06
10 *411:A1 *309:56 0.000139684
11 *422:A1 *301:12 2.52743e-05
12 *422:A1 *309:24 0.000113309
13 *422:A1 *309:56 6.70089e-05
14 *296:8 *405:B1 6.08467e-05
15 *296:8 *407:B 6.08467e-05
16 *296:8 *410:A 3.46358e-05
17 *296:8 *412:A_N 0.000109427
18 *296:8 *298:27 2.97109e-05
19 *296:8 *301:38 2.81262e-05
20 *296:8 *309:30 5.51483e-06
21 *408:A *411:A1 9.04668e-05
22 *408:A *296:8 2.16355e-05
23 *412:B *296:8 1.47046e-05
24 *422:A3 *422:A1 6.36477e-05
25 *422:C1 *422:A1 6.55651e-05
26 *623:A *296:8 0.000114271
*RES
1 *623:X *296:8 21.6824 
2 *296:8 *422:A1 17.9655 
3 *296:8 *411:A1 18.2684 
*END

*D_NET *328 0.00149283
*CONN
*I *395:A I *D sky130_fd_sc_hd__xnor2_1
*I *655:X O *D sky130_fd_sc_hd__buf_4
*CAP
1 *395:A 0.000381984
2 *655:X 0.000381984
3 *395:A *380:A1 0.000314881
4 P[12] *395:A 0
5 *606:A *395:A 0
6 *623:A *395:A 5.04829e-06
7 *655:A *395:A 4.23858e-05
8 *665:A *395:A 0.000335965
9 *85:30 *395:A 2.57986e-05
10 *298:27 *395:A 4.78069e-06
*RES
1 *655:X *395:A 40.186 
*END

*D_NET *298 0.00509436
*CONN
*I *411:A2 I *D sky130_fd_sc_hd__o21ai_0
*I *410:C I *D sky130_fd_sc_hd__or3_4
*I *378:B1 I *D sky130_fd_sc_hd__a21oi_1
*I *625:X O *D sky130_fd_sc_hd__buf_4
*CAP
1 *411:A2 0.00018754
2 *410:C 6.75242e-05
3 *378:B1 4.31128e-05
4 *625:X 0.000166485
5 *298:27 0.00135197
6 *298:10 0.0013065
7 *410:C *410:A 2.85505e-05
8 *410:C *308:12 0.000114659
9 *411:A2 *410:A 5.46384e-06
10 *411:A2 *308:12 0.000192403
11 *411:A2 *308:21 4.94795e-05
12 *298:27 *395:A 4.78069e-06
13 *298:27 *410:A 0.000160047
14 *375:B *298:27 0.000188177
15 *379:A2 *298:10 0.000243204
16 *379:A2 *298:27 0.000282745
17 *379:B1 *378:B1 1.21461e-06
18 *405:A1 *298:27 0
19 *411:A1 *411:A2 3.5063e-05
20 *412:B *411:A2 0.000165983
21 *414:B *411:A2 1.59362e-06
22 *417:D *298:10 0.000113244
23 *623:A *298:27 0.000226957
24 *655:A *298:27 3.73375e-05
25 *60:10 *298:10 0
26 *85:30 *298:27 9.06112e-05
27 *296:8 *298:27 2.97109e-05
*RES
1 *625:X *298:10 19.3507 
2 *298:10 *378:B1 14.4725 
3 *298:10 *298:27 30.4007 
4 *298:27 *410:C 15.9964 
5 *298:27 *411:A2 20.0687 
*END

*D_NET *300 0.00539611
*CONN
*I *414:A I *D sky130_fd_sc_hd__xnor2_1
*I *382:A1 I *D sky130_fd_sc_hd__a21o_1
*I *407:B I *D sky130_fd_sc_hd__nor2_1
*I *381:C I *D sky130_fd_sc_hd__nand3_1
*I *627:X O *D sky130_fd_sc_hd__buf_4
*CAP
1 *414:A 0.000127411
2 *382:A1 0.000145013
3 *407:B 1.47608e-05
4 *381:C 0
5 *627:X 0.00018058
6 *300:42 0.000554487
7 *300:29 0.000890234
8 *300:14 0.00077399
9 *382:A1 *382:A2 6.64392e-05
10 *407:B *301:38 6.08467e-05
11 *300:14 *307:8 6.08467e-05
12 *300:29 *381:A 8.21184e-05
13 *300:29 *307:8 9.32983e-05
14 *300:29 *309:24 6.93171e-05
15 *300:29 *309:56 4.9e-05
16 *300:42 *382:A2 0.000107951
17 *300:42 *309:56 0.000207975
18 P[11] *382:A1 0.000118166
19 P[11] *414:A 0.000224395
20 P[13] *300:42 0
21 *384:A1 *300:14 6.08467e-05
22 *384:A1 *300:29 6.08467e-05
23 *408:B *300:42 0.000127179
24 *408:C *300:29 0.000109951
25 *408:C *300:42 0.000381367
26 *414:B *300:42 0
27 *422:A3 *300:29 0.000413561
28 *422:C1 *300:14 1.2495e-05
29 *422:C1 *300:29 1.94912e-05
30 *423:A *300:14 6.08467e-05
31 *605:A *382:A1 2.74378e-05
32 *627:A *300:14 5.22654e-06
33 *634:A *300:14 0
34 *43:8 *300:14 0.000229188
35 *44:10 *300:14 0
36 *296:8 *407:B 6.08467e-05
*RES
1 *627:X *300:14 24.0194 
2 *300:14 *381:C 9.24915 
3 *300:14 *300:29 16.5372 
4 *300:29 *407:B 14.4725 
5 *300:29 *300:42 15.4675 
6 *300:42 *382:A1 13.3002 
7 *300:42 *414:A 13.3243 
*END

*D_NET *301 0.00511644
*CONN
*I *405:B1 I *D sky130_fd_sc_hd__a2111oi_4
*I *407:A I *D sky130_fd_sc_hd__nor2_1
*I *406:B I *D sky130_fd_sc_hd__nor3_1
*I *382:B1 I *D sky130_fd_sc_hd__a21o_1
*I *628:X O *D sky130_fd_sc_hd__buf_4
*CAP
1 *405:B1 0.000641138
2 *407:A 0
3 *406:B 3.04022e-05
4 *382:B1 0.000405676
5 *628:X 0.000125189
6 *301:38 0.000762321
7 *301:12 0.000547955
8 *301:6 0.000358249
9 *382:B1 *381:A 7.58662e-05
10 *382:B1 *382:A2 0
11 *382:B1 *406:C 5.04829e-06
12 *382:B1 *308:32 6.04048e-05
13 *405:B1 *405:C1 0.000277502
14 *405:B1 *308:12 0.000339557
15 *405:B1 *309:30 1.65872e-05
16 *406:B *406:C 2.16355e-05
17 *301:38 *412:A_N 1.15639e-05
18 *301:38 *309:30 0.000112258
19 *383:A2 *382:B1 0.000122098
20 *384:B1 *382:B1 0
21 *405:A1 *405:B1 0
22 *405:D1 *405:B1 4.03749e-05
23 *407:B *301:38 6.08467e-05
24 *408:A *382:B1 0
25 *408:A *301:12 9.35846e-05
26 *408:A *301:38 7.74853e-06
27 *408:C *405:B1 0.000502166
28 *409:A *382:B1 0
29 *411:A1 *301:12 1.90543e-05
30 *417:D *405:B1 4.58666e-05
31 *422:A1 *301:12 2.52743e-05
32 *605:A *382:B1 0.000297776
33 *607:A *382:B1 7.56859e-06
34 *73:12 *382:B1 1.37566e-05
35 *296:8 *405:B1 6.08467e-05
36 *296:8 *301:38 2.81262e-05
*RES
1 *628:X *301:6 11.6364 
2 *301:6 *301:12 12.493 
3 *301:12 *382:B1 30.1145 
4 *301:12 *406:B 9.97254 
5 *301:6 *301:38 3.52053 
6 *301:38 *407:A 9.24915 
7 *301:38 *405:B1 36.4989 
*END

*D_NET *302 0.00727365
*CONN
*I *434:A I *D sky130_fd_sc_hd__xor2_1
*I *473:A1 I *D sky130_fd_sc_hd__a21o_1
*I *474:A1 I *D sky130_fd_sc_hd__a2111oi_2
*I *388:A I *D sky130_fd_sc_hd__nand2_1
*I *417:C I *D sky130_fd_sc_hd__nand4_1
*I *629:X O *D sky130_fd_sc_hd__buf_4
*CAP
1 *434:A 0.000158488
2 *473:A1 2.42386e-05
3 *474:A1 0
4 *388:A 9.36721e-06
5 *417:C 0.000417383
6 *629:X 0
7 *302:34 0.00170659
8 *302:22 0.00162444
9 *302:8 0.000420147
10 *302:4 0.000209796
11 *388:A *336:20 6.50586e-05
12 *302:34 *377:B 1.25708e-05
13 *302:34 *398:B 5.16502e-05
14 *302:34 *418:A2 2.41274e-06
15 *302:34 *428:A 1.99195e-05
16 *302:34 *474:D1 1.88422e-05
17 *302:34 *305:31 5.90501e-05
18 *302:34 *321:14 1.03403e-05
19 P[6] *302:8 1.12605e-05
20 *378:A2 *417:C 5.481e-05
21 *379:B1 *417:C 3.659e-05
22 *389:B1 *302:34 7.37686e-05
23 *390:B *417:C 0.000118485
24 *390:B *302:34 8.62625e-06
25 *393:A2 *302:34 0
26 *417:A *417:C 5.62568e-05
27 *418:B1 *417:C 0.000342892
28 *418:B1 *302:34 2.24902e-05
29 *427:A1 *302:34 5.49983e-05
30 *427:A2 *302:34 1.9503e-05
31 *428:B *302:34 6.40388e-06
32 *433:A *302:22 6.73023e-05
33 *474:C1 *302:34 0.000156076
34 *477:A2 *302:34 9.43286e-05
35 *629:A *302:8 0.000139517
36 *629:A *302:22 5.28067e-05
37 *654:A *302:22 4.66492e-05
38 *30:22 *434:A 2.16355e-05
39 *30:22 *302:8 0.000116993
40 *30:22 *302:22 0.000359708
41 *48:40 *388:A 6.50586e-05
42 *48:40 *417:C 7.50872e-05
43 *60:52 *417:C 7.01935e-06
44 *67:23 *417:C 0
45 *79:31 *302:22 0.00015901
46 *104:23 *473:A1 6.27782e-05
47 *104:23 *302:22 0.000110458
48 *294:12 *302:22 0.000122844
*RES
1 *629:X *302:4 9.24915 
2 *302:4 *302:8 7.1625 
3 *302:8 *302:22 25.1211 
4 *302:22 *302:34 25.8618 
5 *302:34 *417:C 34.5096 
6 *302:34 *388:A 14.4725 
7 *302:22 *474:A1 9.24915 
8 *302:8 *473:A1 14.4725 
9 *302:4 *434:A 12.7697 
*END

*D_NET *8 0.00682763
*CONN
*I *453:B I *D sky130_fd_sc_hd__and2_1
*I *452:B I *D sky130_fd_sc_hd__and2_1
*I *451:B I *D sky130_fd_sc_hd__and2_1
*I *449:B I *D sky130_fd_sc_hd__and2_1
*I *657:A I *D sky130_fd_sc_hd__buf_4
*I *594:X O *D sky130_fd_sc_hd__clkdlybuf4s50_1
*CAP
1 *453:B 0
2 *452:B 0.000291435
3 *451:B 0
4 *449:B 0
5 *657:A 1.47608e-05
6 *594:X 0.000199768
7 *8:45 0.000486048
8 *8:38 0.000562148
9 *8:31 0.00203959
10 *8:10 0.00188659
11 *452:B *452:A 4.75311e-06
12 *452:B *468:A 0
13 *452:B *489:CIN 4.40158e-05
14 *452:B *184:18 2.85505e-05
15 *452:B *325:27 2.63049e-05
16 *657:A *438:A 6.08467e-05
17 *657:A *438:B 6.08467e-05
18 *8:10 *506:A 4.7798e-05
19 *8:10 *16:14 4.19841e-05
20 *8:10 *16:16 7.26748e-05
21 *8:31 *440:B 2.16355e-05
22 *8:31 *449:A 3.64303e-05
23 *8:31 *494:CIN 1.56314e-05
24 *8:31 *504:A 1.43832e-05
25 *8:31 *506:A 2.1716e-05
26 *8:31 *506:CIN 8.20996e-05
27 *8:31 *16:14 0.000155293
28 *8:31 *170:16 9.78334e-05
29 *8:38 *451:A 0.000112367
30 *8:45 *451:A 0.000289767
31 *8:45 *453:A 0.000112361
*RES
1 *594:X *8:10 17.829 
2 *8:10 *657:A 14.4725 
3 *8:10 *8:31 32.6314 
4 *8:31 *449:B 9.24915 
5 *8:31 *8:38 7.93324 
6 *8:38 *451:B 9.24915 
7 *8:38 *8:45 5.71483 
8 *8:45 *452:B 25.8305 
9 *8:45 *453:B 9.24915 
*END

*D_NET *303 0.00263653
*CONN
*I *473:B1 I *D sky130_fd_sc_hd__a21o_1
*I *474:B1 I *D sky130_fd_sc_hd__a2111oi_2
*I *630:X O *D sky130_fd_sc_hd__buf_4
*CAP
1 *473:B1 0.000312385
2 *474:B1 8.82111e-05
3 *630:X 0.000170448
4 *303:12 0.000571044
5 *473:B1 *398:B 8.8721e-05
6 *473:B1 *674:A 0.000174297
7 *473:B1 *336:20 3.20407e-05
8 *474:B1 *398:B 3.13805e-06
9 *474:B1 *474:D1 3.13805e-06
10 *303:12 *336:20 0.000111708
11 *474:C1 *474:B1 1.82679e-05
12 *477:A3 *473:B1 0.000148017
13 *629:A *473:B1 4.19665e-06
14 *630:A *303:12 2.41483e-05
15 *670:A *473:B1 1.03594e-05
16 *31:18 *473:B1 0.000134976
17 *31:18 *303:12 0.000187289
18 *66:10 *473:B1 0.000131452
19 *66:10 *303:12 0.00019423
20 *79:31 *473:B1 1.15389e-05
21 *104:23 *473:B1 6.08467e-05
22 *294:12 *473:B1 0.000156076
*RES
1 *630:X *303:12 19.6535 
2 *303:12 *474:B1 15.6059 
3 *303:12 *473:B1 33.8889 
*END

*D_NET *305 0.00424155
*CONN
*I *474:D1 I *D sky130_fd_sc_hd__a2111oi_2
*I *426:B1 I *D sky130_fd_sc_hd__a21o_1
*I *475:B I *D sky130_fd_sc_hd__nor2_1
*I *476:A0 I *D sky130_fd_sc_hd__mux2_4
*I *632:X O *D sky130_fd_sc_hd__buf_4
*CAP
1 *474:D1 4.56244e-05
2 *426:B1 4.44689e-05
3 *475:B 0.000156941
4 *476:A0 0.000250886
5 *632:X 3.51473e-05
6 *305:39 0.000456538
7 *305:31 0.000429687
8 *305:8 0.000414968
9 *426:B1 *426:A2 0.000127179
10 *475:B *475:A 2.16355e-05
11 *476:A0 *477:A1 1.41976e-05
12 *305:8 *336:20 0.000107496
13 *305:39 *426:A2 4.51619e-05
14 *305:39 *674:A 2.16355e-05
15 *305:39 *339:52 0.000172003
16 P[8] *426:B1 2.39535e-05
17 *427:A1 *305:31 0.000107496
18 *427:A2 *426:B1 7.14746e-05
19 *427:B1 *476:A0 0.000183009
20 *427:B1 *305:31 0.000178578
21 *472:A *305:39 0.000160135
22 *474:B1 *474:D1 3.13805e-06
23 *474:C1 *474:D1 1.02267e-05
24 *476:A1 *476:A0 0.000205551
25 *476:A1 *305:31 0.000183713
26 *476:A1 *305:39 1.64597e-05
27 *476:S *476:A0 0.000125905
28 *670:A *305:39 0.000250909
29 *31:18 *475:B 3.63221e-05
30 *31:18 *305:39 7.66391e-06
31 *49:14 *305:8 3.82228e-05
32 *66:10 *305:39 0.000188651
33 *299:27 *305:39 2.86829e-05
34 *302:34 *474:D1 1.88422e-05
35 *302:34 *305:31 5.90501e-05
*RES
1 *632:X *305:8 15.0271 
2 *305:8 *476:A0 22.3382 
3 *305:8 *305:31 9.82561 
4 *305:31 *305:39 18.3388 
5 *305:39 *475:B 12.0704 
6 *305:39 *426:B1 20.4964 
7 *305:31 *474:D1 10.5513 
*END

*D_NET *306 0.000695663
*CONN
*I *428:A I *D sky130_fd_sc_hd__xnor2_1
*I *633:X O *D sky130_fd_sc_hd__buf_4
*CAP
1 *428:A 0.000191048
2 *633:X 0.000191048
3 *428:B *428:A 0.000177431
4 *83:14 *428:A 8.72115e-06
5 *294:12 *428:A 0.000107496
6 *302:34 *428:A 1.99195e-05
*RES
1 *633:X *428:A 32.7168 
*END

*D_NET *307 0.00299329
*CONN
*I *381:B I *D sky130_fd_sc_hd__nand3_1
*I *421:A1 I *D sky130_fd_sc_hd__a21o_1
*I *409:B I *D sky130_fd_sc_hd__xor2_1
*I *383:A1 I *D sky130_fd_sc_hd__a21oi_1
*I *634:X O *D sky130_fd_sc_hd__buf_4
*CAP
1 *381:B 0
2 *421:A1 0
3 *409:B 0.000171676
4 *383:A1 6.80324e-05
5 *634:X 0.00010159
6 *307:24 0.000485284
7 *307:16 0.000425971
8 *307:8 0.000281986
9 *383:B1 *383:A1 6.08467e-05
10 *383:B1 *307:24 0.000348199
11 *384:A1 *307:8 2.08133e-05
12 *384:A1 *307:24 0.00027294
13 *384:B1 *383:A1 4.58003e-05
14 *384:B1 *409:B 1.65078e-05
15 *384:B1 *307:24 7.77309e-06
16 *409:A *409:B 0
17 *421:A2 *307:16 0.000109951
18 *421:B1 *307:16 5.04829e-06
19 *421:B1 *307:24 2.16355e-05
20 *422:C1 *307:8 0.000301926
21 *43:8 *307:24 5.37077e-05
22 *73:12 *307:16 3.94515e-05
23 *300:14 *307:8 6.08467e-05
24 *300:29 *307:8 9.32983e-05
*RES
1 *634:X *307:8 13.3243 
2 *307:8 *307:16 12.5252 
3 *307:16 *307:24 13.6017 
4 *307:24 *383:A1 15.5817 
5 *307:24 *409:B 17.9655 
6 *307:16 *421:A1 9.24915 
7 *307:8 *381:B 9.24915 
*END

*D_NET *308 0.00382897
*CONN
*I *381:A I *D sky130_fd_sc_hd__nand3_1
*I *396:A I *D sky130_fd_sc_hd__xnor2_1
*I *406:A I *D sky130_fd_sc_hd__nor3_1
*I *411:B1 I *D sky130_fd_sc_hd__o21ai_0
*I *635:X O *D sky130_fd_sc_hd__buf_4
*CAP
1 *381:A 0.000313241
2 *396:A 0
3 *406:A 0
4 *411:B1 0
5 *635:X 0.00034587
6 *308:32 0.000512058
7 *308:21 0.00031348
8 *308:12 0.000460533
9 *308:32 *406:C 0.000110297
10 *382:B1 *381:A 7.58662e-05
11 *382:B1 *308:32 6.04048e-05
12 *405:B1 *308:12 0.000339557
13 *408:A *381:A 0
14 *408:B *308:32 0.000156946
15 *408:C *308:12 7.64867e-05
16 *410:C *308:12 0.000114659
17 *411:A1 *308:21 2.16355e-05
18 *411:A1 *308:32 5.51483e-06
19 *411:A2 *308:12 0.000192403
20 *411:A2 *308:21 4.94795e-05
21 *422:A2 *381:A 1.59362e-06
22 *422:C1 *381:A 0.000207612
23 *605:A *308:32 0.000118792
24 *628:A *381:A 0.000164842
25 *73:12 *381:A 4.47354e-05
26 *73:12 *308:12 6.08467e-05
27 *300:29 *381:A 8.21184e-05
*RES
1 *635:X *308:12 28.6943 
2 *308:12 *411:B1 9.24915 
3 *308:12 *308:21 2.96592 
4 *308:21 *406:A 9.24915 
5 *308:21 *308:32 6.87226 
6 *308:32 *396:A 9.24915 
7 *308:32 *381:A 28.7294 
*END

*D_NET *309 0.00511527
*CONN
*I *382:A2 I *D sky130_fd_sc_hd__a21o_1
*I *406:C I *D sky130_fd_sc_hd__nor3_1
*I *410:A I *D sky130_fd_sc_hd__or3_4
*I *412:A_N I *D sky130_fd_sc_hd__nand2b_1
*I *405:C1 I *D sky130_fd_sc_hd__a2111oi_4
*I *636:X O *D sky130_fd_sc_hd__buf_4
*CAP
1 *382:A2 0.000286346
2 *406:C 4.85822e-05
3 *410:A 0.000137552
4 *412:A_N 3.13836e-05
5 *405:C1 0.000185281
6 *636:X 0.000439927
7 *309:56 0.000479261
8 *309:30 0.000345425
9 *309:24 0.000575468
10 *382:A1 *382:A2 6.64392e-05
11 *382:B1 *382:A2 0
12 *382:B1 *406:C 5.04829e-06
13 *405:B1 *405:C1 0.000277502
14 *405:B1 *309:30 1.65872e-05
15 *405:D1 *405:C1 4.97044e-05
16 *406:B *406:C 2.16355e-05
17 *408:A *382:A2 0.000134469
18 *408:A *406:C 1.77894e-05
19 *408:A *309:56 1.59657e-05
20 *408:B *382:A2 0.000127179
21 *408:C *405:C1 1.43848e-05
22 *408:C *309:24 0.000114508
23 *410:C *410:A 2.85505e-05
24 *411:A1 *406:C 5.04829e-06
25 *411:A1 *309:56 0.000139684
26 *411:A2 *410:A 5.46384e-06
27 *412:B *410:A 1.56314e-05
28 *413:A2 *410:A 9.29777e-05
29 *417:D *309:24 0.000101118
30 *422:A1 *309:24 0.000113309
31 *422:A1 *309:56 6.70089e-05
32 *605:A *382:A2 2.99287e-05
33 *42:19 *309:24 0.000148129
34 *296:8 *410:A 3.46358e-05
35 *296:8 *412:A_N 0.000109427
36 *296:8 *309:30 5.51483e-06
37 *298:27 *410:A 0.000160047
38 *300:29 *309:24 6.93171e-05
39 *300:29 *309:56 4.9e-05
40 *300:42 *382:A2 0.000107951
41 *300:42 *309:56 0.000207975
42 *301:38 *412:A_N 1.15639e-05
43 *301:38 *309:30 0.000112258
44 *308:32 *406:C 0.000110297
*RES
1 *636:X *405:C1 24.6713 
2 *636:X *309:24 22.2252 
3 *309:24 *309:30 7.46592 
4 *309:30 *412:A_N 11.1059 
5 *309:30 *410:A 23.2989 
6 *309:24 *309:56 5.67918 
7 *309:56 *406:C 15.4058 
8 *309:56 *382:A2 22.9364 
*END

*D_NET *310 0.000853247
*CONN
*I *389:A2 I *D sky130_fd_sc_hd__a21oi_2
*I *637:X O *D sky130_fd_sc_hd__buf_4
*CAP
1 *389:A2 0.000323993
2 *637:X 0.000323993
3 *389:A1 *389:A2 0.000164815
4 *79:31 *389:A2 4.04463e-05
*RES
1 *637:X *389:A2 25.901 
*END

*D_NET *311 0.0047617
*CONN
*I *386:A2 I *D sky130_fd_sc_hd__a31oi_4
*I *435:A1 I *D sky130_fd_sc_hd__a21oi_4
*I *387:B I *D sky130_fd_sc_hd__nand4_1
*I *354:B I *D sky130_fd_sc_hd__xnor2_2
*I *638:X O *D sky130_fd_sc_hd__buf_6
*CAP
1 *386:A2 0.000171711
2 *435:A1 0.000285207
3 *387:B 0
4 *354:B 0.000758571
5 *638:X 0.000197206
6 *311:38 0.000285207
7 *311:36 0.000733076
8 *386:A2 *386:A1 9.55038e-05
9 *386:A2 *386:A3 0.000119987
10 *386:A2 *345:21 2.22342e-05
11 *435:A1 *435:B1 0.000164829
12 *311:36 *386:A3 2.19276e-05
13 *311:36 *313:18 0.000285792
14 *311:36 *316:10 6.53298e-05
15 *311:36 *345:21 7.58687e-05
16 *354:A *311:36 6.93171e-05
17 *373:B1 *354:B 0
18 *373:B2 *354:B 6.08467e-05
19 *387:C *311:36 7.50872e-05
20 *387:D *435:A1 0.000160617
21 *436:A *435:A1 0.000164815
22 *639:A *311:36 0
23 *641:A *354:B 6.08467e-05
24 *643:A *354:B 6.84074e-06
25 *64:10 *354:B 0.000162423
26 *78:14 *311:36 9.22105e-05
27 *293:16 *311:36 0.000626247
*RES
1 *638:X *354:B 32.9927 
2 *354:B *311:36 41.3973 
3 *311:36 *311:38 4.5 
4 *311:38 *387:B 9.24915 
5 *311:38 *435:A1 16.2902 
6 *311:36 *386:A2 19.7659 
*END

*D_NET *9 0.00669565
*CONN
*I *461:A I *D sky130_fd_sc_hd__and2_1
*I *401:A I *D sky130_fd_sc_hd__and2_1
*I *453:A I *D sky130_fd_sc_hd__and2_1
*I *656:A I *D sky130_fd_sc_hd__buf_4
*I *595:X O *D sky130_fd_sc_hd__dlygate4sd2_1
*CAP
1 *461:A 0
2 *401:A 0.000430315
3 *453:A 0.000260088
4 *656:A 2.09702e-05
5 *595:X 0.000324323
6 *9:25 0.00106368
7 *9:19 0.00111135
8 *9:6 0.00108337
9 *401:A *391:A1 4.39523e-05
10 *401:A *391:A2 0.000157132
11 *453:A *391:A2 3.60883e-05
12 *453:A *83:8 3.51918e-05
13 *9:6 *533:B 0.000112048
14 *9:19 *355:A 9.94284e-06
15 *9:19 *355:B 0.00016553
16 *9:19 *487:CIN 8.49565e-06
17 *9:19 *533:B 0.000110297
18 *9:19 *652:A 0.000170553
19 *9:19 *319:52 0.000161262
20 *9:19 *319:69 0.000572046
21 *9:19 *325:12 0.000487161
22 *9:25 *489:B 0.00014815
23 *9:25 *491:B 0
24 *461:B *9:25 7.13492e-05
25 *8:45 *453:A 0.000112361
*RES
1 *595:X *9:6 16.6278 
2 *9:6 *656:A 9.82786 
3 *9:6 *9:19 21.8466 
4 *9:19 *9:25 17.8913 
5 *9:25 *453:A 15.5668 
6 *9:25 *401:A 16.5072 
7 *9:19 *461:A 9.24915 
*END

*D_NET *312 0.00151686
*CONN
*I *435:B1 I *D sky130_fd_sc_hd__a21oi_4
*I *639:X O *D sky130_fd_sc_hd__buf_4
*CAP
1 *435:B1 0.000348342
2 *639:X 0.000348342
3 *435:B1 *435:A2 0.000166091
4 *435:B1 *436:B 0.000193492
5 *435:B1 *313:18 4.48639e-05
6 *435:A1 *435:B1 0.000164829
7 *436:A *435:B1 9.75356e-05
8 *639:A *435:B1 9.28874e-05
9 *78:14 *435:B1 6.04782e-05
*RES
1 *639:X *435:B1 39.503 
*END

*D_NET *314 0.00171127
*CONN
*I *435:A2 I *D sky130_fd_sc_hd__a21oi_4
*I *641:X O *D sky130_fd_sc_hd__buf_4
*CAP
1 *435:A2 0.000486502
2 *641:X 0.000486502
3 P[5] *435:A2 0
4 *435:B1 *435:A2 0.000166091
5 *614:A *435:A2 4.75557e-05
6 *639:A *435:A2 0.000359311
7 *78:14 *435:A2 0.000165306
*RES
1 *641:X *435:A2 43.6527 
*END

*D_NET *316 0.00213251
*CONN
*I *386:A3 I *D sky130_fd_sc_hd__a31oi_4
*I *353:B1 I *D sky130_fd_sc_hd__a21oi_1
*I *643:X O *D sky130_fd_sc_hd__buf_4
*CAP
1 *386:A3 0.000227356
2 *353:B1 5.32157e-05
3 *643:X 0.000475986
4 *316:10 0.000756558
5 *386:A3 *434:B 0
6 *354:A *353:B1 2.41274e-06
7 *354:A *316:10 0.000130627
8 *386:A2 *386:A3 0.000119987
9 *387:C *353:B1 2.65667e-05
10 *387:C *386:A3 7.86847e-05
11 *615:A *386:A3 0
12 *615:A *316:10 0
13 *641:A *316:10 0.000107496
14 *643:A *316:10 3.31882e-05
15 *79:14 *386:A3 0
16 *311:36 *386:A3 2.19276e-05
17 *311:36 *316:10 6.53298e-05
18 *313:18 *316:10 3.31745e-05
*RES
1 *643:X *316:10 27.1039 
2 *316:10 *353:B1 15.0271 
3 *316:10 *386:A3 20.5642 
*END

*D_NET *317 0.000659123
*CONN
*I *351:B I *D sky130_fd_sc_hd__xor2_1
*I *644:X O *D sky130_fd_sc_hd__buf_4
*CAP
1 *351:B 0.000240705
2 *644:X 0.000240705
3 *370:A2 *351:B 0.000112361
4 *639:A *351:B 6.53523e-05
5 *61:10 *351:B 0
*RES
1 *644:X *351:B 32.5721 
*END

*D_NET *318 0.000461753
*CONN
*I *516:A I *D sky130_fd_sc_hd__ha_1
*I *645:X O *D sky130_fd_sc_hd__buf_4
*CAP
1 *516:A 9.76096e-05
2 *645:X 9.76096e-05
3 *352:B1 *516:A 0.000109427
4 *645:A *516:A 0.000157107
*RES
1 *645:X *516:A 21.4401 
*END

*D_NET *329 0.00451901
*CONN
*I *441:B I *D sky130_fd_sc_hd__and2_1
*I *365:B I *D sky130_fd_sc_hd__and2_1
*I *367:A I *D sky130_fd_sc_hd__and2_1
*I *432:A I *D sky130_fd_sc_hd__and2_1
*I *358:B I *D sky130_fd_sc_hd__and2_1
*I *656:X O *D sky130_fd_sc_hd__buf_4
*CAP
1 *441:B 0.000315226
2 *365:B 0
3 *367:A 0
4 *432:A 5.83207e-05
5 *358:B 2.71859e-05
6 *656:X 0
7 *329:24 0.000318607
8 *329:16 0.000566511
9 *329:12 0.000538756
10 *329:6 0.000520571
11 *329:12 *469:A 0.000264612
12 *329:16 *448:A 0
13 *497:CIN *329:24 7.26606e-05
14 *508:A *441:B 0.000363062
15 *508:A *329:12 0.000179286
16 *508:B *432:A 0.000160942
17 *508:B *441:B 0.000152666
18 *508:B *329:24 0.000163165
19 *508:CIN *329:12 2.15348e-05
20 *521:B *432:A 9.44631e-06
21 *523:A *441:B 8.56291e-05
22 *523:B *441:B 0.000160524
23 *532:B *329:12 0.000311261
24 *596:A *441:B 4.47123e-05
25 *596:A *329:12 0.000179286
26 *645:A *441:B 5.04829e-06
*RES
1 *656:X *329:6 13.7491 
2 *329:6 *329:12 13.2926 
3 *329:12 *329:16 11.7303 
4 *329:16 *329:24 10.8224 
5 *329:24 *358:B 10.2378 
6 *329:24 *432:A 11.6605 
7 *329:16 *367:A 13.7491 
8 *329:12 *365:B 9.24915 
9 *329:6 *441:B 25.5794 
*END

*D_NET *330 0.00272123
*CONN
*I *446:B I *D sky130_fd_sc_hd__and2_1
*I *444:B I *D sky130_fd_sc_hd__and2_1
*I *440:B I *D sky130_fd_sc_hd__and2_1
*I *438:B I *D sky130_fd_sc_hd__and2_1
*I *657:X O *D sky130_fd_sc_hd__buf_4
*CAP
1 *446:B 0.000104944
2 *444:B 0
3 *440:B 0.000135034
4 *438:B 7.3853e-05
5 *657:X 0
6 *330:34 0.000190206
7 *330:6 0.000246977
8 *330:4 0.000123352
9 *446:B *446:A 0.000110297
10 *438:A *438:B 4.98963e-05
11 *506:CIN *440:B 0
12 *657:A *438:B 6.08467e-05
13 *6:6 *438:B 0.000203756
14 *6:6 *330:6 6.08467e-05
15 *6:10 *440:B 2.86829e-05
16 *6:30 *446:B 0.000180647
17 *6:30 *330:6 4.85806e-05
18 *6:30 *330:34 0.00025424
19 *7:14 *440:B 3.52984e-05
20 *7:53 *446:B 0.000553681
21 *7:53 *330:34 7.50943e-05
22 *8:31 *440:B 2.16355e-05
23 *16:14 *440:B 0.000163359
*RES
1 *657:X *330:4 9.24915 
2 *330:4 *330:6 1.278 
3 *330:6 *438:B 12.2151 
4 *330:6 *440:B 22.629 
5 *330:4 *330:34 3.52053 
6 *330:34 *444:B 9.24915 
7 *330:34 *446:B 15.5186 
*END

*D_NET *331 0.00784046
*CONN
*I *464:B I *D sky130_fd_sc_hd__and2_1
*I *465:B I *D sky130_fd_sc_hd__and2_1
*I *401:B I *D sky130_fd_sc_hd__and2_1
*I *425:B I *D sky130_fd_sc_hd__and2_1
*I *468:B I *D sky130_fd_sc_hd__and2_1
*I *658:X O *D sky130_fd_sc_hd__buf_4
*CAP
1 *464:B 0.00014871
2 *465:B 0
3 *401:B 0.000155904
4 *425:B 0.000255954
5 *468:B 2.1308e-05
6 *658:X 0.000218667
7 *331:59 0.000651082
8 *331:23 0.000643959
9 *331:14 0.000791085
10 *331:10 0.00125871
11 *425:B *669:A 1.32845e-05
12 *468:A *331:14 0.000207294
13 *483:CIN *331:10 0
14 *483:CIN *331:59 0
15 *487:CIN *425:B 2.16355e-05
16 *489:A *331:23 0.000212216
17 *493:B *331:59 0
18 *494:CIN *464:B 0.00010903
19 *494:CIN *331:59 0.000113968
20 *510:A *425:B 0.000208601
21 *522:A *425:B 0.000472808
22 *526:B *425:B 0.000113119
23 *529:B *331:59 0
24 *72:10 *331:59 0.000631172
25 *184:18 *331:10 2.58616e-05
26 *227:14 *401:B 0.000153225
27 *230:14 *401:B 6.4628e-05
28 *230:14 *425:B 0.000723227
29 *234:16 *331:10 0.000336381
30 *234:16 *331:59 0.00022778
31 *325:12 *425:B 6.08467e-05
*RES
1 *658:X *331:10 20.4571 
2 *331:10 *331:14 16.3155 
3 *331:14 *468:B 9.82786 
4 *331:14 *331:23 5.71483 
5 *331:23 *425:B 32.0163 
6 *331:23 *401:B 22.7442 
7 *331:10 *331:59 20.4166 
8 *331:59 *465:B 9.24915 
9 *331:59 *464:B 13.3484 
*END

*D_NET *112 0.00162249
*CONN
*I *532:B I *D sky130_fd_sc_hd__ha_4
*I *469:X O *D sky130_fd_sc_hd__and2_4
*CAP
1 *532:B 0.000265793
2 *469:X 0.000265793
3 *532:B *365:A 4.24529e-05
4 *532:B *469:A 0.000136547
5 *532:B *507:B 0.000221607
6 *532:B *144:20 6.08467e-05
7 *532:B *222:12 0.000112228
8 *532:B *329:12 0.000311261
9 *532:B *349:32 0.000205962
*RES
1 *469:X *532:B 38.5923 
*END

*D_NET *113 0.000448236
*CONN
*I *530:B I *D sky130_fd_sc_hd__ha_4
*I *466:X O *D sky130_fd_sc_hd__and2_4
*CAP
1 *530:B 0.00019876
2 *466:X 0.00019876
3 *530:B *498:CIN 0
4 *530:B *349:12 0
5 *530:B *349:23 5.0715e-05
*RES
1 *466:X *530:B 31.4388 
*END

*D_NET *114 0.000345065
*CONN
*I *485:B I *D sky130_fd_sc_hd__fa_1
*I *437:X O *D sky130_fd_sc_hd__and2_4
*CAP
1 *485:B 6.00662e-05
2 *437:X 6.00662e-05
3 *485:B *485:A 0.000159874
4 *485:B *499:A 6.50586e-05
*RES
1 *437:X *485:B 11.552 
*END

*D_NET *115 0.00131388
*CONN
*I *527:A I *D sky130_fd_sc_hd__ha_4
*I *439:X O *D sky130_fd_sc_hd__and2_4
*CAP
1 *527:A 0.000157006
2 *439:X 0.000157006
3 *527:A *486:B 0.000216303
4 *527:A *527:B 0.000224381
5 *527:A *598:A 0.000145575
6 *443:B *527:A 0.000122083
7 *471:B *527:A 5.92192e-05
8 *12:8 *527:A 7.90692e-05
9 *14:40 *527:A 0.00015324
*RES
1 *439:X *527:A 36.7061 
*END

*D_NET *116 0.00129702
*CONN
*I *479:A I *D sky130_fd_sc_hd__fa_2
*I *443:X O *D sky130_fd_sc_hd__and2_4
*CAP
1 *479:A 0.00054077
2 *443:X 0.00054077
3 *479:A *364:A 0
4 *479:A *488:B 3.86835e-05
5 *479:A *488:CIN 3.56119e-05
6 *479:A *528:B 3.37662e-05
7 *479:A *320:12 1.77537e-06
8 *479:A *320:27 1.62054e-05
9 *479:A *341:10 6.36477e-05
10 *2:25 *479:A 2.57847e-05
*RES
1 *443:X *479:A 32.4316 
*END

*D_NET *117 0.0012455
*CONN
*I *480:CIN I *D sky130_fd_sc_hd__fa_1
*I *442:X O *D sky130_fd_sc_hd__and2_1
*CAP
1 *480:CIN 0.000495189
2 *442:X 0.000495189
3 *480:CIN *527:B 4.05654e-05
4 *363:B *480:CIN 0.000151309
5 *3:27 *480:CIN 2.26816e-05
6 *12:66 *480:CIN 4.05654e-05
*RES
1 *442:X *480:CIN 36.1543 
*END

*D_NET *118 0.00121157
*CONN
*I *478:B I *D sky130_fd_sc_hd__fa_1
*I *645:A I *D sky130_fd_sc_hd__buf_4
*I *441:X O *D sky130_fd_sc_hd__and2_1
*CAP
1 *478:B 4.69315e-05
2 *645:A 0.000271464
3 *441:X 0.000318395
4 *478:B *523:A 7.15593e-05
5 *478:B *523:B 0.000156823
6 *645:A *441:B 5.04829e-06
7 *645:A *478:CIN 7.2591e-05
8 *645:A *516:A 0.000157107
9 *352:A2 *645:A 9.50664e-05
10 *352:B1 *645:A 1.65872e-05
*RES
1 *441:X *645:A 25.9252 
2 *441:X *478:B 20.9116 
*END

*D_NET *119 0.000436749
*CONN
*I *507:A I *D sky130_fd_sc_hd__fa_1
*I *445:X O *D sky130_fd_sc_hd__and2_1
*CAP
1 *507:A 0.00014337
2 *445:X 0.00014337
3 *507:A *507:B 0.000150008
*RES
1 *445:X *507:A 12.6612 
*END

*D_NET *120 0.000783085
*CONN
*I *497:A I *D sky130_fd_sc_hd__fa_1
*I *448:X O *D sky130_fd_sc_hd__and2_4
*CAP
1 *497:A 0.00022332
2 *448:X 0.00022332
3 *497:A *448:A 0.000174694
4 *497:A *498:CIN 1.03986e-05
5 *497:A *144:20 0.000151353
6 *497:A *349:23 0
7 *11:39 *497:A 0
*RES
1 *448:X *497:A 23.8507 
*END

*D_NET *121 0.00161246
*CONN
*I *485:CIN I *D sky130_fd_sc_hd__fa_1
*I *447:X O *D sky130_fd_sc_hd__and2_4
*CAP
1 *485:CIN 0.000322674
2 *447:X 0.000322674
3 *485:CIN *497:B 3.96096e-05
4 *485:CIN *498:A 8.61936e-05
5 *485:CIN *498:B 0.00012568
6 *485:CIN *499:A 0
7 *485:CIN *510:A 0.000214292
8 *485:CIN *677:A 5.71992e-05
9 *485:CIN *341:18 0.000444133
*RES
1 *447:X *485:CIN 39.2963 
*END

*D_NET *122 0.000330916
*CONN
*I *521:A I *D sky130_fd_sc_hd__ha_1
*I *431:X O *D sky130_fd_sc_hd__and2_1
*CAP
1 *521:A 9.22135e-05
2 *431:X 9.22135e-05
3 *521:A *521:B 0.0001261
4 *478:A *521:A 2.03887e-05
*RES
1 *431:X *521:A 30.4689 
*END

*D_NET *123 0.000458086
*CONN
*I *486:A I *D sky130_fd_sc_hd__fa_1
*I *450:X O *D sky130_fd_sc_hd__and2_4
*CAP
1 *486:A 0.000120336
2 *450:X 0.000120336
3 *486:A *486:CIN 0
4 *486:A *320:38 6.92705e-05
5 *486:A *335:24 0.000148144
*RES
1 *450:X *486:A 21.635 
*END

*D_NET *124 0.00112504
*CONN
*I *479:B I *D sky130_fd_sc_hd__fa_2
*I *363:X O *D sky130_fd_sc_hd__and2_4
*CAP
1 *479:B 0.000204893
2 *363:X 0.000204893
3 *479:B *479:CIN 0.000156748
4 *479:B *490:B 0.000143684
5 *1:38 *479:B 3.42702e-05
6 *12:66 *479:B 0.000380551
*RES
1 *363:X *479:B 26.8124 
*END

*D_NET *125 0.000495095
*CONN
*I *480:B I *D sky130_fd_sc_hd__fa_1
*I *470:X O *D sky130_fd_sc_hd__and2_4
*CAP
1 *480:B 8.32957e-05
2 *470:X 8.32957e-05
3 *480:B *492:A 2.63403e-05
4 *470:A *480:B 0.000302163
*RES
1 *470:X *480:B 12.6612 
*END

*D_NET *126 0.00188724
*CONN
*I *481:A I *D sky130_fd_sc_hd__fa_2
*I *356:X O *D sky130_fd_sc_hd__and2_4
*CAP
1 *481:A 0.000467517
2 *356:X 0.000467517
3 *481:A *494:B 0.000114885
4 *481:A *504:A 0.000527058
5 *481:A *504:B 5.37397e-05
6 *481:A *517:B 9.44631e-06
7 *481:A *192:14 5.66065e-05
8 *458:B *481:A 0.000139219
9 *7:63 *481:A 5.12484e-05
*RES
1 *356:X *481:A 34.9231 
*END

*D_NET *127 0.00228319
*CONN
*I *507:B I *D sky130_fd_sc_hd__fa_1
*I *367:X O *D sky130_fd_sc_hd__and2_1
*CAP
1 *507:B 0.000516194
2 *367:X 0.000516194
3 *507:B *355:A 6.84074e-06
4 *507:B *508:A 0.000242742
5 *507:B *508:B 0
6 *507:B *508:CIN 0.000312082
7 *507:B *144:20 0.000114659
8 *507:B *349:32 4.10445e-05
9 *507:A *507:B 0.000150008
10 *532:B *507:B 0.000221607
11 *10:27 *507:B 0.000161817
*RES
1 *367:X *507:B 34.5979 
*END

*D_NET *128 0.00067696
*CONN
*I *497:CIN I *D sky130_fd_sc_hd__fa_1
*I *360:X O *D sky130_fd_sc_hd__and2_1
*CAP
1 *497:CIN 0.000260566
2 *360:X 0.000260566
3 *497:CIN *367:B 5.84505e-05
4 *497:CIN *448:A 2.47163e-05
5 *497:CIN *329:24 7.26606e-05
*RES
1 *360:X *497:CIN 32.2721 
*END

*D_NET *129 0.00110273
*CONN
*I *531:A I *D sky130_fd_sc_hd__ha_1
*I *362:X O *D sky130_fd_sc_hd__and2_1
*CAP
1 *531:A 0.000358657
2 *362:X 0.000358657
3 *531:A *335:24 0.000107353
4 *531:A *335:33 9.54458e-06
5 *362:A *531:A 0.000172122
6 *11:39 *531:A 9.63981e-05
*RES
1 *362:X *531:A 27.2032 
*END

*D_NET *130 0.000733646
*CONN
*I *486:CIN I *D sky130_fd_sc_hd__fa_1
*I *361:X O *D sky130_fd_sc_hd__and2_1
*CAP
1 *486:CIN 0.000338328
2 *361:X 0.000338328
3 *486:CIN *486:B 5.69911e-05
4 *486:CIN *528:A 0
5 *486:A *486:CIN 0
*RES
1 *361:X *486:CIN 34.4905 
*END

*D_NET *131 0.00129618
*CONN
*I *528:A I *D sky130_fd_sc_hd__ha_1
*I *415:X O *D sky130_fd_sc_hd__and2_1
*CAP
1 *528:A 0.000324515
2 *415:X 0.000324515
3 *528:A *488:A 8.30536e-05
4 *528:A *335:12 0
5 *486:CIN *528:A 0
6 *1:19 *528:A 0.000210977
7 *1:38 *528:A 0.00035312
*RES
1 *415:X *528:A 37.6353 
*END

*D_NET *132 0.000603244
*CONN
*I *480:A I *D sky130_fd_sc_hd__fa_1
*I *397:X O *D sky130_fd_sc_hd__and2_4
*CAP
1 *480:A 0.000180512
2 *397:X 0.000180512
3 *480:A *527:B 0.000231005
4 *443:B *480:A 2.84898e-06
5 *3:21 *480:A 8.36586e-06
*RES
1 *397:X *480:A 23.4764 
*END

*D_NET *133 0.00278686
*CONN
*I *533:A I *D sky130_fd_sc_hd__ha_1
*I *429:X O *D sky130_fd_sc_hd__and2_1
*CAP
1 *533:A 0
2 *429:X 0.000811979
3 *133:12 0.000811979
4 *133:12 *508:B 3.92355e-05
5 *133:12 *533:B 0.000141529
6 *133:12 *595:A 0.000165169
7 *133:12 *597:A 0.000205934
8 *133:12 *222:12 0
9 *133:12 *244:12 2.41274e-06
10 *133:12 *335:50 0
11 *431:A *133:12 7.94494e-05
12 *610:A *133:12 3.30133e-05
13 *10:10 *133:12 4.38058e-05
14 *11:12 *133:12 0.000452349
*RES
1 *429:X *133:12 44.4739 
2 *133:12 *533:A 9.24915 
*END

*D_NET *134 0.000499034
*CONN
*I *481:CIN I *D sky130_fd_sc_hd__fa_2
*I *400:X O *D sky130_fd_sc_hd__and2_1
*CAP
1 *481:CIN 0.000183679
2 *400:X 0.000183679
3 *481:CIN *492:A 0
4 *481:CIN *492:B 0
5 *481:CIN *502:A 0
6 *481:CIN *192:14 0.000131676
*RES
1 *400:X *481:CIN 32.8271 
*END

*D_NET *135 0.00270833
*CONN
*I *482:B I *D sky130_fd_sc_hd__fa_2
*I *368:X O *D sky130_fd_sc_hd__and2_1
*CAP
1 *482:B 0.000545785
2 *368:X 0.000545785
3 *482:B *481:B 0.00027952
4 *482:B *482:A 8.51933e-05
5 *482:B *482:CIN 0.000617028
6 *482:B *505:B 0.000512385
7 *482:B *319:21 0
8 *482:B *323:19 0
9 *356:B *482:B 0
10 *368:B *482:B 4.87439e-05
11 *403:B *482:B 5.88662e-05
12 *15:35 *482:B 1.50214e-05
*RES
1 *368:X *482:B 38.9391 
*END

*D_NET *136 0.00172924
*CONN
*I *508:CIN I *D sky130_fd_sc_hd__fa_1
*I *365:X O *D sky130_fd_sc_hd__and2_1
*CAP
1 *508:CIN 0.00050889
2 *365:X 0.00050889
3 *508:CIN *355:A 7.20045e-05
4 *508:CIN *469:A 0.000165521
5 *508:CIN *508:A 1.71187e-05
6 *508:CIN *508:B 5.58964e-05
7 *508:CIN *523:A 6.73023e-05
8 *508:CIN *329:12 2.15348e-05
9 *507:B *508:CIN 0.000312082
*RES
1 *365:X *508:CIN 40.8853 
*END

*D_NET *137 0.000745014
*CONN
*I *531:B I *D sky130_fd_sc_hd__ha_1
*I *369:X O *D sky130_fd_sc_hd__and2_1
*CAP
1 *531:B 0.00018357
2 *369:X 0.00018357
3 *531:B *499:CIN 7.37686e-05
4 *531:B *320:38 0.000122378
5 *531:B *320:67 0.000120894
6 *447:B *531:B 6.08337e-05
*RES
1 *369:X *531:B 33.5151 
*END

*D_NET *138 0.00103331
*CONN
*I *487:A I *D sky130_fd_sc_hd__fa_1
*I *357:X O *D sky130_fd_sc_hd__and2_1
*CAP
1 *487:A 0.000169006
2 *357:X 0.000169006
3 *487:A *510:A 0.000348991
4 *487:A *522:A 2.41274e-06
5 *487:A *669:A 0.000343894
*RES
1 *357:X *487:A 25.3723 
*END

*D_NET *139 0.00268085
*CONN
*I *528:B I *D sky130_fd_sc_hd__ha_1
*I *364:X O *D sky130_fd_sc_hd__and2_1
*CAP
1 *528:B 0.000662844
2 *364:X 0.000662844
3 *528:B *488:CIN 8.96342e-05
4 *528:B *166:18 8.62625e-06
5 *528:B *320:12 0.000127179
6 *528:B *320:27 7.50722e-05
7 *471:A *528:B 0.000318741
8 *479:A *528:B 3.37662e-05
9 *1:19 *528:B 9.2346e-06
10 *2:25 *528:B 0
11 *13:20 *528:B 0.000182869
12 *13:29 *528:B 0.000305777
13 *13:37 *528:B 0.000204259
*RES
1 *364:X *528:B 46.0809 
*END

*D_NET *140 0.000954325
*CONN
*I *529:A I *D sky130_fd_sc_hd__ha_1
*I *424:X O *D sky130_fd_sc_hd__and2_1
*CAP
1 *529:A 0.000265544
2 *424:X 0.000265544
3 *529:A *492:CIN 0.000268154
4 *529:A *184:18 3.4934e-05
5 *529:A *319:52 6.36477e-05
6 *658:A *529:A 2.57847e-05
7 *659:A *529:A 0
8 *13:37 *529:A 3.07159e-05
*RES
1 *424:X *529:A 34.9296 
*END

*D_NET *141 0.00157393
*CONN
*I *481:B I *D sky130_fd_sc_hd__fa_2
*I *366:X O *D sky130_fd_sc_hd__and2_4
*CAP
1 *481:B 0.000538416
2 *366:X 0.000538416
3 *481:B *482:CIN 0.000108982
4 *356:B *481:B 0
5 *403:B *481:B 1.46079e-05
6 *482:B *481:B 0.00027952
7 *15:27 *481:B 4.3116e-06
8 *16:44 *481:B 8.96744e-05
*RES
1 *366:X *481:B 32.9582 
*END

*D_NET *142 0.00231197
*CONN
*I *482:CIN I *D sky130_fd_sc_hd__fa_2
*I *403:X O *D sky130_fd_sc_hd__and2_1
*CAP
1 *482:CIN 0.000681658
2 *403:X 0.000681658
3 *482:CIN *464:A 0.000115147
4 *482:CIN *495:CIN 0
5 *482:CIN *319:30 0.000107496
6 *356:B *482:CIN 0
7 *481:B *482:CIN 0.000108982
8 *482:B *482:CIN 0.000617028
*RES
1 *403:X *482:CIN 47.4032 
*END

*D_NET *143 0.000317574
*CONN
*I *484:A I *D sky130_fd_sc_hd__fa_1
*I *402:X O *D sky130_fd_sc_hd__and2_1
*CAP
1 *484:A 5.26679e-05
2 *402:X 5.26679e-05
3 *484:A *484:CIN 4.40158e-05
4 *484:A *323:10 1.67286e-05
5 *366:A *484:A 0.000151494
*RES
1 *402:X *484:A 20.9116 
*END

*D_NET *144 0.00251088
*CONN
*I *532:A I *D sky130_fd_sc_hd__ha_4
*I *430:X O *D sky130_fd_sc_hd__and2_1
*CAP
1 *532:A 0
2 *430:X 0.000809589
3 *144:20 0.000809589
4 *144:20 *362:B 3.67528e-06
5 *144:20 *430:B 5.22654e-06
6 *144:20 *498:CIN 0.000213725
7 *144:20 *508:B 7.87629e-05
8 *144:20 *222:12 3.54295e-05
9 *144:20 *335:50 6.50825e-05
10 *144:20 *349:23 6.26257e-05
11 *144:20 *349:32 6.34182e-05
12 *497:A *144:20 0.000151353
13 *507:B *144:20 0.000114659
14 *532:B *144:20 6.08467e-05
15 *11:39 *144:20 3.69003e-05
*RES
1 *430:X *144:20 49.5358 
2 *144:20 *532:A 9.24915 
*END

*D_NET *145 0.000433774
*CONN
*I *509:B I *D sky130_fd_sc_hd__fa_1
*I *401:X O *D sky130_fd_sc_hd__and2_1
*CAP
1 *509:B 7.92808e-05
2 *401:X 7.92808e-05
3 *509:B *524:B 0.000160942
4 *391:A1 *509:B 0.000114271
*RES
1 *401:X *509:B 12.1307 
*END

*D_NET *146 0.000391008
*CONN
*I *487:B I *D sky130_fd_sc_hd__fa_1
*I *425:X O *D sky130_fd_sc_hd__and2_1
*CAP
1 *487:B 4.55841e-05
2 *425:X 4.55841e-05
3 *487:B *487:CIN 0.000148114
4 *487:B *230:14 0.000151726
*RES
1 *425:X *487:B 20.9116 
*END

*D_NET *147 0.00131043
*CONN
*I *489:A I *D sky130_fd_sc_hd__fa_1
*I *468:X O *D sky130_fd_sc_hd__and2_1
*CAP
1 *489:A 0.000471173
2 *468:X 0.000471173
3 *489:A *511:B 0.000128537
4 *489:A *522:A 1.89692e-05
5 *489:A *669:A 8.36586e-06
6 *489:A *331:23 0.000212216
7 *391:A2 *489:A 0
*RES
1 *468:X *489:A 28.9237 
*END

*D_NET *148 0.00122928
*CONN
*I *529:B I *D sky130_fd_sc_hd__ha_1
*I *467:X O *D sky130_fd_sc_hd__and2_1
*CAP
1 *529:B 0.000308979
2 *467:X 0.000308979
3 *529:B *483:CIN 0.000251704
4 *529:B *493:B 7.50872e-05
5 *529:B *331:59 0
6 *467:B *529:B 0.000169375
7 *658:A *529:B 0.000115157
*RES
1 *467:X *529:B 36.8371 
*END

*D_NET *149 0.000559115
*CONN
*I *493:A I *D sky130_fd_sc_hd__fa_1
*I *465:X O *D sky130_fd_sc_hd__and2_1
*CAP
1 *493:A 0.000182246
2 *465:X 0.000182246
3 *493:A *503:A 5.71059e-05
4 *493:A *503:B 6.93349e-05
5 *493:A *517:A 1.02917e-05
6 *72:10 *493:A 5.78902e-05
*RES
1 *465:X *493:A 24.2337 
*END

*D_NET *150 0.000323687
*CONN
*I *483:A I *D sky130_fd_sc_hd__fa_1
*I *464:X O *D sky130_fd_sc_hd__and2_1
*CAP
1 *483:A 5.65473e-05
2 *464:X 5.65473e-05
3 *483:A *465:A 2.3939e-05
4 *483:A *483:B 3.67708e-05
5 *483:A *494:B 4.87343e-05
6 *483:A *504:CIN 0.000101148
*RES
1 *464:X *483:A 20.9116 
*END

*D_NET *151 0.000753581
*CONN
*I *484:B I *D sky130_fd_sc_hd__fa_1
*I *463:X O *D sky130_fd_sc_hd__and2_1
*CAP
1 *484:B 0.000212359
2 *463:X 0.000212359
3 *366:A *484:B 0.000176652
4 *402:A *484:B 0.000126335
5 *463:B *484:B 2.58757e-05
*RES
1 *463:X *484:B 24.5418 
*END

*D_NET *152 0.000722277
*CONN
*I *496:B I *D sky130_fd_sc_hd__fa_1
*I *462:X O *D sky130_fd_sc_hd__and2_1
*CAP
1 *496:B 9.93937e-05
2 *462:X 9.93937e-05
3 *496:B *323:10 1.36691e-05
4 *496:B *323:19 3.89332e-06
5 *463:B *496:B 5.77352e-05
6 *6:10 *496:B 0.000203833
7 *7:20 *496:B 0.000179286
8 *16:36 *496:B 6.50727e-05
*RES
1 *462:X *496:B 23.2961 
*END

*D_NET *153 0.00100605
*CONN
*I *487:CIN I *D sky130_fd_sc_hd__fa_1
*I *461:X O *D sky130_fd_sc_hd__and2_1
*CAP
1 *487:CIN 0.000297404
2 *461:X 0.000297404
3 *487:CIN *425:A 2.16355e-05
4 *487:CIN *425:B 2.16355e-05
5 *487:CIN *510:A 0.00017416
6 *487:CIN *230:14 1.2693e-05
7 *487:CIN *325:12 2.45095e-05
8 *487:B *487:CIN 0.000148114
9 *9:19 *487:CIN 8.49565e-06
*RES
1 *461:X *487:CIN 34.0725 
*END

*D_NET *154 0.000457815
*CONN
*I *489:B I *D sky130_fd_sc_hd__fa_1
*I *460:X O *D sky130_fd_sc_hd__and2_1
*CAP
1 *489:B 0.000123446
2 *460:X 0.000123446
3 *489:B *325:27 6.27718e-05
4 *9:25 *489:B 0.00014815
*RES
1 *460:X *489:B 21.635 
*END

*D_NET *155 0.00327738
*CONN
*I *530:A I *D sky130_fd_sc_hd__ha_4
*I *399:X O *D sky130_fd_sc_hd__and2_4
*CAP
1 *530:A 0
2 *399:X 0.000685335
3 *155:16 0.000685335
4 *155:16 *447:A 2.30636e-05
5 *155:16 *497:B 0.000684003
6 *155:16 *349:12 0.000383703
7 *447:B *155:16 0.000620811
8 *661:A *155:16 0.000195124
*RES
1 *399:X *155:16 41.9162 
2 *155:16 *530:A 9.24915 
*END

*D_NET *156 0.000883586
*CONN
*I *491:A I *D sky130_fd_sc_hd__fa_1
*I *459:X O *D sky130_fd_sc_hd__and2_1
*CAP
1 *491:A 0.000150575
2 *459:X 0.000150575
3 *491:A *501:B 9.83156e-05
4 *491:A *501:CIN 6.08467e-05
5 *491:A *184:18 0.000319194
6 *491:A *255:14 0.000104079
*RES
1 *459:X *491:A 24.5418 
*END

*D_NET *157 0.00116509
*CONN
*I *493:B I *D sky130_fd_sc_hd__fa_1
*I *458:X O *D sky130_fd_sc_hd__and2_1
*CAP
1 *493:B 0.000319039
2 *458:X 0.000319039
3 *493:B *483:CIN 6.50727e-05
4 *493:B *503:CIN 0
5 *493:B *534:A 0.000243809
6 *493:B *331:59 0
7 *379:A2 *493:B 0
8 *467:B *493:B 0.000143047
9 *529:B *493:B 7.50872e-05
*RES
1 *458:X *493:B 27.8638 
*END

*D_NET *158 0.00075072
*CONN
*I *483:B I *D sky130_fd_sc_hd__fa_1
*I *457:X O *D sky130_fd_sc_hd__and2_1
*CAP
1 *483:B 0.000123091
2 *457:X 0.000123091
3 *483:B *465:A 4.49758e-05
4 *483:B *494:A 0.000147281
5 *483:B *494:B 0.00022924
6 *458:B *483:B 4.62703e-05
7 *483:A *483:B 3.67708e-05
*RES
1 *457:X *483:B 24.2337 
*END

*D_NET *159 0.00140975
*CONN
*I *484:CIN I *D sky130_fd_sc_hd__fa_1
*I *456:X O *D sky130_fd_sc_hd__and2_1
*CAP
1 *484:CIN 0.000381548
2 *456:X 0.000381548
3 *484:CIN *323:10 0.000470274
4 *366:A *484:CIN 1.35317e-05
5 *463:B *484:CIN 3.98606e-05
6 *484:A *484:CIN 4.40158e-05
7 *16:36 *484:CIN 7.89747e-05
*RES
1 *456:X *484:CIN 38.3615 
*END

*D_NET *160 0.00055824
*CONN
*I *496:CIN I *D sky130_fd_sc_hd__fa_1
*I *455:X O *D sky130_fd_sc_hd__and2_1
*CAP
1 *496:CIN 0.000161014
2 *455:X 0.000161014
3 *15:10 *496:CIN 5.69404e-05
4 *16:18 *496:CIN 0.000179271
*RES
1 *455:X *496:CIN 32.4086 
*END

*D_NET *161 0.00262184
*CONN
*I *506:B I *D sky130_fd_sc_hd__fa_1
*I *454:X O *D sky130_fd_sc_hd__and2_1
*CAP
1 *506:B 0.000493181
2 *454:X 0.000493181
3 *506:B *464:A 0.00018323
4 *506:B *495:A 0.000156823
5 *506:B *506:CIN 0.000732175
6 *506:B *323:19 0.000118017
7 *356:A *506:B 0
8 *454:B *506:B 5.04829e-06
9 *7:14 *506:B 0.000345846
10 *7:16 *506:B 9.43419e-05
11 *16:14 *506:B 0
*RES
1 *454:X *506:B 37.8299 
*END

*D_NET *162 0.000469854
*CONN
*I *489:CIN I *D sky130_fd_sc_hd__fa_1
*I *453:X O *D sky130_fd_sc_hd__and2_1
*CAP
1 *489:CIN 0.000212919
2 *453:X 0.000212919
3 *452:B *489:CIN 4.40158e-05
*RES
1 *453:X *489:CIN 32.2721 
*END

*D_NET *163 0.000768479
*CONN
*I *491:B I *D sky130_fd_sc_hd__fa_1
*I *452:X O *D sky130_fd_sc_hd__and2_1
*CAP
1 *491:B 0.000305751
2 *452:X 0.000305751
3 *491:B *501:CIN 0
4 *491:B *512:B 0.000149628
5 *491:B *512:CIN 7.34948e-06
6 *491:B *184:18 0
7 *461:B *491:B 0
8 *9:25 *491:B 0
*RES
1 *452:X *491:B 25.9819 
*END

*D_NET *164 0.00246188
*CONN
*I *493:CIN I *D sky130_fd_sc_hd__fa_1
*I *451:X O *D sky130_fd_sc_hd__and2_1
*CAP
1 *493:CIN 0.000711608
2 *451:X 0.000711608
3 *493:CIN *513:A 0
4 *493:CIN *513:B 0.000112756
5 *493:CIN *255:14 0.00076455
6 *379:B1 *493:CIN 9.2372e-05
7 *419:A2 *493:CIN 1.36606e-05
8 *48:10 *493:CIN 5.53281e-05
*RES
1 *451:X *493:CIN 49.4452 
*END

*D_NET *165 0.0012589
*CONN
*I *483:CIN I *D sky130_fd_sc_hd__fa_1
*I *449:X O *D sky130_fd_sc_hd__and2_1
*CAP
1 *483:CIN 0.000447321
2 *449:X 0.000447321
3 *483:CIN *331:10 0
4 *483:CIN *331:59 0
5 *458:B *483:CIN 4.74857e-05
6 *493:B *483:CIN 6.50727e-05
7 *529:B *483:CIN 0.000251704
*RES
1 *449:X *483:CIN 38.6458 
*END

*D_NET *166 0.00370102
*CONN
*I *485:A I *D sky130_fd_sc_hd__fa_1
*I *471:X O *D sky130_fd_sc_hd__and2_4
*CAP
1 *485:A 0.000643009
2 *471:X 0.000892493
3 *166:18 0.0015355
4 *166:18 *588:A 1.43983e-05
5 *450:B *485:A 2.82583e-05
6 *471:A *485:A 6.50727e-05
7 *485:B *485:A 0.000159874
8 *528:B *166:18 8.62625e-06
9 *535:A *166:18 0
10 *649:A *166:18 7.06457e-05
11 *2:6 *166:18 9.90116e-05
12 *3:8 *166:18 4.90264e-05
13 *13:76 *485:A 0.000135103
*RES
1 *471:X *166:18 42.174 
2 *166:18 *485:A 12.1892 
*END

*D_NET *167 0.0025658
*CONN
*I *504:B I *D sky130_fd_sc_hd__fa_1
*I *446:X O *D sky130_fd_sc_hd__and2_1
*CAP
1 *504:B 0.000499557
2 *446:X 0.000499557
3 *504:B *504:A 0.000674819
4 *504:B *505:CIN 0
5 *504:B *517:B 7.60183e-05
6 *504:B *192:14 0.000263721
7 *356:B *504:B 0.000178151
8 *417:D *504:B 8.6464e-05
9 *481:A *504:B 5.37397e-05
10 *6:30 *504:B 6.46815e-05
11 *42:19 *504:B 0.000169097
*RES
1 *446:X *504:B 38.2451 
*END

*D_NET *168 0.00168291
*CONN
*I *505:B I *D sky130_fd_sc_hd__fa_1
*I *444:X O *D sky130_fd_sc_hd__and2_1
*CAP
1 *505:B 0.000291997
2 *444:X 0.000291997
3 *505:B *482:A 0.000538431
4 *505:B *505:CIN 4.80972e-05
5 *505:B *506:CIN 0
6 *356:B *505:B 0
7 *482:B *505:B 0.000512385
*RES
1 *444:X *505:B 30.8777 
*END

*D_NET *169 0.0018911
*CONN
*I *506:CIN I *D sky130_fd_sc_hd__fa_1
*I *440:X O *D sky130_fd_sc_hd__and2_1
*CAP
1 *506:CIN 0.000363255
2 *440:X 0.000363255
3 *506:CIN *440:B 0
4 *506:CIN *464:A 0.000323535
5 *506:CIN *482:A 2.6777e-05
6 *505:B *506:CIN 0
7 *506:B *506:CIN 0.000732175
8 *8:31 *506:CIN 8.20996e-05
*RES
1 *440:X *506:CIN 42.6824 
*END

*D_NET *170 0.00386191
*CONN
*I *519:B I *D sky130_fd_sc_hd__ha_1
*I *438:X O *D sky130_fd_sc_hd__and2_1
*CAP
1 *519:B 0.000239137
2 *438:X 0.000698237
3 *170:16 0.000937374
4 *170:16 *505:A 7.91354e-05
5 *170:16 *506:A 0.000920497
6 *170:16 *518:A 0.000291873
7 *170:16 *519:A 0.000188427
8 *385:A2 *519:B 3.31813e-05
9 *385:B1 *519:B 3.86207e-06
10 *627:A *170:16 0
11 *634:A *170:16 6.32836e-05
12 *6:6 *170:16 6.27718e-05
13 *8:31 *170:16 9.78334e-05
14 *16:14 *170:16 4.48472e-05
15 *44:10 *170:16 0.000200236
16 *46:6 *519:B 1.21461e-06
17 *56:10 *170:16 0
*RES
1 *438:X *170:16 47.8692 
2 *170:16 *519:B 12.7456 
*END

*D_NET *171 0.00156012
*CONN
*I *527:B I *D sky130_fd_sc_hd__ha_4
*I *359:X O *D sky130_fd_sc_hd__and2_4
*CAP
1 *527:B 0.000390331
2 *359:X 0.000390331
3 *527:B *486:B 2.61147e-05
4 *480:A *527:B 0.000231005
5 *480:CIN *527:B 4.05654e-05
6 *527:A *527:B 0.000224381
7 *3:21 *527:B 3.72133e-05
8 *12:8 *527:B 0.000220183
9 *12:66 *527:B 0
*RES
1 *359:X *527:B 40.3012 
*END

*D_NET *172 0.00178153
*CONN
*I *479:CIN I *D sky130_fd_sc_hd__fa_2
*I *404:X O *D sky130_fd_sc_hd__and2_1
*CAP
1 *479:CIN 0.000569032
2 *404:X 0.000569032
3 *479:CIN *490:A 0.000110458
4 *404:B *479:CIN 0.000207591
5 *479:B *479:CIN 0.000156748
6 *1:38 *479:CIN 0.000168669
*RES
1 *404:X *479:CIN 33.8403 
*END

*D_NET *173 0.00127234
*CONN
*I *521:B I *D sky130_fd_sc_hd__ha_1
*I *358:X O *D sky130_fd_sc_hd__and2_1
*CAP
1 *521:B 0.000440086
2 *358:X 0.000440086
3 *521:B *431:B 0.000100956
4 *521:B *432:A 9.44631e-06
5 *521:B *508:B 5.69501e-06
6 *521:A *521:B 0.0001261
7 *603:A *521:B 1.4091e-06
8 *11:12 *521:B 0.000148564
*RES
1 *358:X *521:B 36.0444 
*END

*D_NET *174 0.00153839
*CONN
*I *533:B I *D sky130_fd_sc_hd__ha_1
*I *355:X O *D sky130_fd_sc_hd__and2_1
*CAP
1 *533:B 0.000418657
2 *355:X 0.000418657
3 *533:B *508:B 0.000337204
4 *9:6 *533:B 0.000112048
5 *9:19 *533:B 0.000110297
6 *133:12 *533:B 0.000141529
*RES
1 *355:X *533:B 38.0884 
*END

*D_NET *175 0.000435518
*CONN
*I *488:B I *D sky130_fd_sc_hd__fa_2
*I *527:COUT O *D sky130_fd_sc_hd__ha_4
*CAP
1 *488:B 0.000131239
2 *527:COUT 0.000131239
3 *488:B *364:A 6.93349e-05
4 *488:B *501:A 6.50211e-05
5 *479:A *488:B 3.86835e-05
*RES
1 *527:COUT *488:B 22.6599 
*END

*D_NET *176 0.00288178
*CONN
*I *486:B I *D sky130_fd_sc_hd__fa_1
*I *527:SUM O *D sky130_fd_sc_hd__ha_4
*CAP
1 *486:B 0.00128601
2 *527:SUM 0.00128601
3 *486:CIN *486:B 5.69911e-05
4 *527:A *486:B 0.000216303
5 *527:B *486:B 2.61147e-05
6 *662:A *486:B 1.03403e-05
*RES
1 *527:SUM *486:B 30.4567 
*END

*D_NET *177 0.00118
*CONN
*I *490:A I *D sky130_fd_sc_hd__fa_2
*I *479:COUT O *D sky130_fd_sc_hd__fa_2
*CAP
1 *490:A 0.000374155
2 *479:COUT 0.000374155
3 *490:A *492:A 0
4 *490:A *503:A 0
5 *479:CIN *490:A 0.000110458
6 *1:38 *490:A 4.89251e-05
7 *12:66 *490:A 0.000272308
8 *15:46 *490:A 0
*RES
1 *479:COUT *490:A 30.0794 
*END

*D_NET *178 0.00268408
*CONN
*I *490:CIN I *D sky130_fd_sc_hd__fa_2
*I *528:COUT O *D sky130_fd_sc_hd__ha_1
*CAP
1 *490:CIN 0.000675352
2 *528:COUT 0.000675352
3 *490:CIN *488:A 7.26606e-05
4 *490:CIN *501:A 0.000522456
5 *490:CIN *501:CIN 0.00054917
6 *490:CIN *513:A 0
7 *490:CIN *234:16 0
8 *490:CIN *255:14 0.000146819
9 *7:63 *490:CIN 4.22655e-05
10 *13:37 *490:CIN 0
*RES
1 *528:COUT *490:CIN 48.2363 
*END

*D_NET *179 0.000932467
*CONN
*I *488:A I *D sky130_fd_sc_hd__fa_2
*I *479:SUM O *D sky130_fd_sc_hd__fa_2
*CAP
1 *488:A 0.000270956
2 *479:SUM 0.000270956
3 *488:A *501:A 0.000174038
4 *488:A *335:12 5.03545e-06
5 *490:CIN *488:A 7.26606e-05
6 *528:A *488:A 8.30536e-05
7 *1:38 *488:A 5.57677e-05
*RES
1 *479:SUM *488:A 26.4154 
*END

*D_NET *180 0.000968847
*CONN
*I *488:CIN I *D sky130_fd_sc_hd__fa_2
*I *528:SUM O *D sky130_fd_sc_hd__ha_1
*CAP
1 *488:CIN 0.000263267
2 *528:SUM 0.000263267
3 *488:CIN *501:A 0.000299525
4 *399:B *488:CIN 1.75419e-05
5 *479:A *488:CIN 3.56119e-05
6 *528:B *488:CIN 8.96342e-05
*RES
1 *528:SUM *488:CIN 34.1107 
*END

*D_NET *181 0.00118479
*CONN
*I *492:A I *D sky130_fd_sc_hd__fa_2
*I *480:COUT O *D sky130_fd_sc_hd__fa_1
*CAP
1 *492:A 0.000321087
2 *480:COUT 0.000321087
3 *492:A *502:A 5.69404e-05
4 *492:A *192:14 0
5 *480:B *492:A 2.63403e-05
6 *481:CIN *492:A 0
7 *490:A *492:A 0
8 *4:31 *492:A 0.000328292
9 *15:46 *492:A 8.17672e-05
10 *15:48 *492:A 4.92721e-05
*RES
1 *480:COUT *492:A 28.4184 
*END

*D_NET *182 0.00210237
*CONN
*I *492:CIN I *D sky130_fd_sc_hd__fa_2
*I *529:COUT O *D sky130_fd_sc_hd__ha_1
*CAP
1 *492:CIN 0.000506068
2 *529:COUT 0.000506068
3 *492:CIN *364:A 0
4 *492:CIN *502:CIN 0.000160617
5 *492:CIN *234:16 9.84406e-05
6 *492:CIN *319:30 0.000194445
7 *492:CIN *319:32 0
8 *529:A *492:CIN 0.000268154
9 *659:A *492:CIN 0.000165455
10 *13:37 *492:CIN 0.000203126
*RES
1 *529:COUT *492:CIN 43.8508 
*END

*D_NET *183 0.00134162
*CONN
*I *490:B I *D sky130_fd_sc_hd__fa_2
*I *480:SUM O *D sky130_fd_sc_hd__fa_1
*CAP
1 *490:B 0.000304324
2 *480:SUM 0.000304324
3 *490:B *364:A 8.01777e-05
4 *490:B *502:CIN 0.000179256
5 *479:B *490:B 0.000143684
6 *659:A *490:B 9.02651e-05
7 *12:66 *490:B 0.000239591
*RES
1 *480:SUM *490:B 30.4624 
*END

*D_NET *184 0.00296085
*CONN
*I *491:CIN I *D sky130_fd_sc_hd__fa_1
*I *529:SUM O *D sky130_fd_sc_hd__ha_1
*CAP
1 *491:CIN 0
2 *529:SUM 0.00100011
3 *184:18 0.00100011
4 *184:18 *459:A 7.40248e-05
5 *184:18 *501:B 7.38416e-05
6 *184:18 *501:CIN 9.49579e-05
7 *184:18 *512:B 0
8 *184:18 *255:14 1.78514e-05
9 *184:18 *325:42 8.96342e-05
10 *184:18 *331:10 2.58616e-05
11 *452:B *184:18 2.85505e-05
12 *491:A *184:18 0.000319194
13 *491:B *184:18 0
14 *529:A *184:18 3.4934e-05
15 *658:A *184:18 7.05965e-05
16 *659:A *184:18 0.000112361
17 *7:82 *184:18 1.88183e-05
*RES
1 *529:SUM *184:18 42.2272 
2 *184:18 *491:CIN 9.24915 
*END

*D_NET *185 0.00151158
*CONN
*I *482:A I *D sky130_fd_sc_hd__fa_2
*I *481:COUT O *D sky130_fd_sc_hd__fa_2
*CAP
1 *482:A 0.00030865
2 *481:COUT 0.00030865
3 *482:A *464:A 0.0002038
4 *482:A *323:19 4.00757e-05
5 *482:B *482:A 8.51933e-05
6 *505:B *482:A 0.000538431
7 *506:CIN *482:A 2.6777e-05
*RES
1 *481:COUT *482:A 31.2929 
*END

*D_NET *186 0.000289499
*CONN
*I *492:B I *D sky130_fd_sc_hd__fa_2
*I *481:SUM O *D sky130_fd_sc_hd__fa_2
*CAP
1 *492:B 0.000114047
2 *481:SUM 0.000114047
3 *492:B *494:A 6.14061e-05
4 *492:B *502:A 0
5 *481:CIN *492:B 0
*RES
1 *481:SUM *492:B 21.3269 
*END

*D_NET *187 0.000307309
*CONN
*I *495:A I *D sky130_fd_sc_hd__fa_1
*I *482:COUT O *D sky130_fd_sc_hd__fa_2
*CAP
1 *495:A 5.12356e-05
2 *482:COUT 5.12356e-05
3 *506:B *495:A 0.000156823
4 *16:14 *495:A 4.80148e-05
*RES
1 *482:COUT *495:A 20.9116 
*END

*D_NET *188 0.000727908
*CONN
*I *495:B I *D sky130_fd_sc_hd__fa_1
*I *483:COUT O *D sky130_fd_sc_hd__fa_1
*CAP
1 *495:B 0.000120859
2 *483:COUT 0.000120859
3 *495:B *495:CIN 0.000274081
4 *495:B *504:CIN 0.000212109
*RES
1 *483:COUT *495:B 13.7945 
*END

*D_NET *189 0.00161643
*CONN
*I *494:CIN I *D sky130_fd_sc_hd__fa_2
*I *482:SUM O *D sky130_fd_sc_hd__fa_2
*CAP
1 *494:CIN 0.000513944
2 *482:SUM 0.000513944
3 *494:CIN *458:A 4.86511e-05
4 *494:CIN *464:A 4.12085e-05
5 *494:CIN *464:B 0.00010903
6 *494:CIN *503:A 0.000187269
7 *494:CIN *503:B 5.53934e-05
8 *494:CIN *503:CIN 0
9 *494:CIN *331:59 0.000113968
10 *494:CIN *333:8 1.7387e-05
11 *8:31 *494:CIN 1.56314e-05
*RES
1 *482:SUM *494:CIN 43.0536 
*END

*D_NET *190 0.000694586
*CONN
*I *503:B I *D sky130_fd_sc_hd__fa_1
*I *483:SUM O *D sky130_fd_sc_hd__fa_1
*CAP
1 *503:B 0.000138484
2 *483:SUM 0.000138484
3 *503:B *503:A 0
4 *503:B *503:CIN 4.09467e-05
5 *493:A *503:B 6.93349e-05
6 *494:CIN *503:B 5.53934e-05
7 *72:10 *503:B 0.000251944
*RES
1 *483:SUM *503:B 24.2337 
*END

*D_NET *191 0.00110551
*CONN
*I *496:A I *D sky130_fd_sc_hd__fa_1
*I *484:COUT O *D sky130_fd_sc_hd__fa_1
*CAP
1 *496:A 0.000493189
2 *484:COUT 0.000493189
3 *402:A *496:A 0
4 *15:10 *496:A 5.32652e-05
5 *15:16 *496:A 6.58661e-05
*RES
1 *484:COUT *496:A 31.1858 
*END

*D_NET *192 0.00531948
*CONN
*I *495:CIN I *D sky130_fd_sc_hd__fa_1
*I *484:SUM O *D sky130_fd_sc_hd__fa_1
*CAP
1 *495:CIN 0.00030783
2 *484:SUM 0.00111481
3 *192:14 0.00142264
4 *192:14 *504:CIN 1.82679e-05
5 *356:B *495:CIN 0.000112971
6 *356:B *192:14 0.00117183
7 *442:B *192:14 0.000305977
8 *481:A *192:14 5.66065e-05
9 *481:CIN *192:14 0.000131676
10 *482:CIN *495:CIN 0
11 *492:A *192:14 0
12 *495:B *495:CIN 0.000274081
13 *504:B *192:14 0.000263721
14 *3:27 *192:14 0.000139083
15 *4:31 *192:14 0
*RES
1 *484:SUM *192:14 49.9128 
2 *192:14 *495:CIN 24.5715 
*END

*D_NET *193 0.00157747
*CONN
*I *498:CIN I *D sky130_fd_sc_hd__fa_1
*I *530:COUT O *D sky130_fd_sc_hd__ha_4
*CAP
1 *498:CIN 0.00058071
2 *530:COUT 0.00058071
3 *498:CIN *362:B 0.000116986
4 *498:CIN *430:B 0
5 *498:CIN *349:12 0
6 *448:B *498:CIN 7.49422e-05
7 *497:A *498:CIN 1.03986e-05
8 *530:B *498:CIN 0
9 *144:20 *498:CIN 0.000213725
*RES
1 *530:COUT *498:CIN 42.2973 
*END

*D_NET *194 0.00272937
*CONN
*I *497:B I *D sky130_fd_sc_hd__fa_1
*I *530:SUM O *D sky130_fd_sc_hd__ha_4
*CAP
1 *497:B 0.000597871
2 *530:SUM 0.000597871
3 *497:B *369:B 1.21985e-05
4 *497:B *498:A 0.000322335
5 *497:B *510:A 7.94015e-05
6 *497:B *349:12 6.50727e-05
7 *369:A *497:B 0.000304859
8 *447:B *497:B 2.61463e-05
9 *485:CIN *497:B 3.96096e-05
10 *155:16 *497:B 0.000684003
*RES
1 *530:SUM *497:B 38.9166 
*END

*D_NET *195 0.00233691
*CONN
*I *499:A I *D sky130_fd_sc_hd__fa_1
*I *485:COUT O *D sky130_fd_sc_hd__fa_1
*CAP
1 *499:A 0.000820937
2 *485:COUT 0.000820937
3 *499:A *437:A 0
4 *499:A *500:CIN 6.27718e-05
5 *499:A *227:14 2.29422e-05
6 *499:A *230:14 0.000167438
7 *499:A *335:24 0.000376821
8 *499:A *341:18 0
9 *450:B *499:A 0
10 *485:B *499:A 6.50586e-05
11 *485:CIN *499:A 0
*RES
1 *485:COUT *499:A 39.0065 
*END

*D_NET *196 0.00152262
*CONN
*I *499:B I *D sky130_fd_sc_hd__fa_1
*I *531:COUT O *D sky130_fd_sc_hd__ha_1
*CAP
1 *499:B 0.000390122
2 *531:COUT 0.000390122
3 *499:B *499:CIN 2.44243e-05
4 *499:B *320:67 0.000522345
5 *10:31 *499:B 1.65872e-05
6 *11:39 *499:B 6.58661e-05
7 *11:54 *499:B 0.00011315
*RES
1 *531:COUT *499:B 31.0651 
*END

*D_NET *197 0.00111976
*CONN
*I *498:A I *D sky130_fd_sc_hd__fa_1
*I *485:SUM O *D sky130_fd_sc_hd__fa_1
*CAP
1 *498:A 0.000259945
2 *485:SUM 0.000259945
3 *498:A *498:B 0.000172233
4 *498:A *499:CIN 1.91114e-05
5 *485:CIN *498:A 8.61936e-05
6 *497:B *498:A 0.000322335
*RES
1 *485:SUM *498:A 26.1507 
*END

*D_NET *198 0.000727436
*CONN
*I *498:B I *D sky130_fd_sc_hd__fa_1
*I *531:SUM O *D sky130_fd_sc_hd__ha_1
*CAP
1 *498:B 0.000165888
2 *531:SUM 0.000165888
3 *498:B *499:CIN 1.34424e-05
4 *498:B *510:A 1.92459e-05
5 *498:B *320:38 6.50586e-05
6 *485:CIN *498:B 0.00012568
7 *498:A *498:B 0.000172233
*RES
1 *531:SUM *498:B 22.968 
*END

*D_NET *199 0.000701462
*CONN
*I *500:A I *D sky130_fd_sc_hd__fa_1
*I *486:COUT O *D sky130_fd_sc_hd__fa_1
*CAP
1 *500:A 0.00023285
2 *486:COUT 0.00023285
3 *500:A *500:CIN 0.000150541
4 *500:A *501:A 4.14581e-05
5 *500:A *335:12 4.3763e-05
6 *500:A *335:24 0
*RES
1 *486:COUT *500:A 24.8727 
*END

*D_NET *200 0.000668818
*CONN
*I *500:B I *D sky130_fd_sc_hd__fa_1
*I *487:COUT O *D sky130_fd_sc_hd__fa_1
*CAP
1 *500:B 0.000285641
2 *487:COUT 0.000285641
3 *500:B *512:B 0
4 *500:B *512:CIN 9.75356e-05
5 *500:B *669:A 0
*RES
1 *487:COUT *500:B 24.9571 
*END

*D_NET *201 0.00178612
*CONN
*I *499:CIN I *D sky130_fd_sc_hd__fa_1
*I *486:SUM O *D sky130_fd_sc_hd__fa_1
*CAP
1 *499:CIN 0.000696721
2 *486:SUM 0.000696721
3 *499:CIN *369:B 0.00013832
4 *499:CIN *509:A 2.8322e-05
5 *499:CIN *510:A 2.65831e-05
6 *499:CIN *320:67 1.25464e-05
7 *369:A *499:CIN 9.05084e-06
8 *447:B *499:CIN 4.7109e-05
9 *498:A *499:CIN 1.91114e-05
10 *498:B *499:CIN 1.34424e-05
11 *499:B *499:CIN 2.44243e-05
12 *531:B *499:CIN 7.37686e-05
*RES
1 *486:SUM *499:CIN 40.3632 
*END

*D_NET *202 0.000823702
*CONN
*I *510:B I *D sky130_fd_sc_hd__fa_1
*I *487:SUM O *D sky130_fd_sc_hd__fa_1
*CAP
1 *510:B 0.000143144
2 *487:SUM 0.000143144
3 *510:B *509:A 0
4 *510:B *227:14 0.000326436
5 *510:B *319:69 0.000210977
*RES
1 *487:SUM *510:B 24.2337 
*END

*D_NET *203 0.00290395
*CONN
*I *501:A I *D sky130_fd_sc_hd__fa_2
*I *488:COUT O *D sky130_fd_sc_hd__fa_2
*CAP
1 *501:A 0.000678236
2 *488:COUT 0.000678236
3 *501:A *512:A 5.62448e-05
4 *501:A *255:14 0.000381058
5 *399:B *501:A 7.68216e-06
6 *488:A *501:A 0.000174038
7 *488:B *501:A 6.50211e-05
8 *488:CIN *501:A 0.000299525
9 *490:CIN *501:A 0.000522456
10 *500:A *501:A 4.14581e-05
*RES
1 *488:COUT *501:A 37.8411 
*END

*D_NET *204 0.000907765
*CONN
*I *501:B I *D sky130_fd_sc_hd__fa_2
*I *489:COUT O *D sky130_fd_sc_hd__fa_1
*CAP
1 *501:B 0.000243594
2 *489:COUT 0.000243594
3 *501:B *459:A 7.40248e-05
4 *501:B *255:14 0.000113443
5 *501:B *325:42 6.09513e-05
6 *491:A *501:B 9.83156e-05
7 *184:18 *501:B 7.38416e-05
*RES
1 *489:COUT *501:B 24.6209 
*END

*D_NET *205 0.000945739
*CONN
*I *500:CIN I *D sky130_fd_sc_hd__fa_1
*I *488:SUM O *D sky130_fd_sc_hd__fa_2
*CAP
1 *500:CIN 0.000334824
2 *488:SUM 0.000334824
3 *500:CIN *335:12 6.27782e-05
4 *499:A *500:CIN 6.27718e-05
5 *500:A *500:CIN 0.000150541
*RES
1 *488:SUM *500:CIN 36.0444 
*END

*D_NET *206 0.00142894
*CONN
*I *511:B I *D sky130_fd_sc_hd__fa_1
*I *489:SUM O *D sky130_fd_sc_hd__fa_1
*CAP
1 *511:B 0.000398145
2 *489:SUM 0.000398145
3 *511:B *522:A 0.000504109
4 *391:A2 *511:B 0
5 *489:A *511:B 0.000128537
*RES
1 *489:SUM *511:B 29.5276 
*END

*D_NET *207 0.000796057
*CONN
*I *502:A I *D sky130_fd_sc_hd__fa_2
*I *490:COUT O *D sky130_fd_sc_hd__fa_2
*CAP
1 *502:A 0.000172086
2 *490:COUT 0.000172086
3 *502:A *494:A 3.69482e-05
4 *502:A *503:A 0.000357996
5 *481:CIN *502:A 0
6 *492:A *502:A 5.69404e-05
7 *492:B *502:A 0
*RES
1 *490:COUT *502:A 25.012 
*END

*D_NET *208 0.000548074
*CONN
*I *502:B I *D sky130_fd_sc_hd__fa_2
*I *491:COUT O *D sky130_fd_sc_hd__fa_1
*CAP
1 *502:B 0.000236903
2 *491:COUT 0.000236903
3 *502:B *234:16 7.42689e-05
*RES
1 *491:COUT *502:B 14.9037 
*END

*D_NET *209 0.00181183
*CONN
*I *501:CIN I *D sky130_fd_sc_hd__fa_2
*I *490:SUM O *D sky130_fd_sc_hd__fa_2
*CAP
1 *501:CIN 0.000369256
2 *490:SUM 0.000369256
3 *501:CIN *452:A 5.01553e-05
4 *501:CIN *459:A 0.000121579
5 *501:CIN *319:52 1.47046e-05
6 *490:CIN *501:CIN 0.00054917
7 *491:A *501:CIN 6.08467e-05
8 *491:B *501:CIN 0
9 *7:63 *501:CIN 0.000149255
10 *7:82 *501:CIN 3.26503e-05
11 *184:18 *501:CIN 9.49579e-05
*RES
1 *490:SUM *501:CIN 40.4284 
*END

*D_NET *210 0.000543519
*CONN
*I *512:CIN I *D sky130_fd_sc_hd__fa_2
*I *491:SUM O *D sky130_fd_sc_hd__fa_1
*CAP
1 *512:CIN 0.000204235
2 *491:SUM 0.000204235
3 *512:CIN *512:B 3.01634e-05
4 *491:B *512:CIN 7.34948e-06
5 *500:B *512:CIN 9.75356e-05
*RES
1 *491:SUM *512:CIN 31.8923 
*END

*D_NET *211 0.00145516
*CONN
*I *494:A I *D sky130_fd_sc_hd__fa_2
*I *492:COUT O *D sky130_fd_sc_hd__fa_2
*CAP
1 *494:A 0.000372405
2 *492:COUT 0.000372405
3 *494:A *465:A 7.98748e-05
4 *494:A *503:A 6.91684e-05
5 *494:A *319:30 0.000271044
6 *458:B *494:A 1.60687e-05
7 *483:B *494:A 0.000147281
8 *492:B *494:A 6.14061e-05
9 *502:A *494:A 3.69482e-05
10 *7:63 *494:A 2.85637e-05
*RES
1 *492:COUT *494:A 30.9127 
*END

*D_NET *212 0.00183054
*CONN
*I *494:B I *D sky130_fd_sc_hd__fa_2
*I *493:COUT O *D sky130_fd_sc_hd__fa_1
*CAP
1 *494:B 0.000517403
2 *493:COUT 0.000517403
3 *494:B *504:A 3.17474e-05
4 *494:B *504:CIN 0.00010687
5 *494:B *517:A 0.000111672
6 *458:B *494:B 0.000152586
7 *481:A *494:B 0.000114885
8 *483:A *494:B 4.87343e-05
9 *483:B *494:B 0.00022924
*RES
1 *493:COUT *494:B 33.8195 
*END

*D_NET *213 0.000777054
*CONN
*I *502:CIN I *D sky130_fd_sc_hd__fa_2
*I *492:SUM O *D sky130_fd_sc_hd__fa_2
*CAP
1 *502:CIN 0.000179937
2 *492:SUM 0.000179937
3 *502:CIN *364:A 7.73065e-05
4 *490:B *502:CIN 0.000179256
5 *492:CIN *502:CIN 0.000160617
*RES
1 *492:SUM *502:CIN 32.5835 
*END

*D_NET *214 0.000474812
*CONN
*I *513:B I *D sky130_fd_sc_hd__fa_1
*I *493:SUM O *D sky130_fd_sc_hd__fa_1
*CAP
1 *513:B 0.000154638
2 *493:SUM 0.000154638
3 *379:A2 *513:B 5.27799e-05
4 *493:CIN *513:B 0.000112756
*RES
1 *493:SUM *513:B 21.7744 
*END

*D_NET *215 0.00226687
*CONN
*I *504:A I *D sky130_fd_sc_hd__fa_1
*I *494:COUT O *D sky130_fd_sc_hd__fa_2
*CAP
1 *504:A 0.000444497
2 *494:COUT 0.000444497
3 *504:A *517:B 7.26748e-05
4 *417:D *504:A 5.71992e-05
5 *481:A *504:A 0.000527058
6 *494:B *504:A 3.17474e-05
7 *504:B *504:A 0.000674819
8 *8:31 *504:A 1.43832e-05
*RES
1 *494:COUT *504:A 36.2421 
*END

*D_NET *216 0.0016465
*CONN
*I *503:CIN I *D sky130_fd_sc_hd__fa_1
*I *494:SUM O *D sky130_fd_sc_hd__fa_2
*CAP
1 *503:CIN 0.00033149
2 *494:SUM 0.00033149
3 *503:CIN *458:A 0.00017419
4 *503:CIN *534:A 4.04751e-05
5 *503:CIN *534:B 8.36586e-06
6 *503:CIN *333:8 3.25494e-05
7 *467:A *503:CIN 0.000386139
8 *467:B *503:CIN 5.66868e-06
9 *493:B *503:CIN 0
10 *494:CIN *503:CIN 0
11 *503:B *503:CIN 4.09467e-05
12 *72:10 *503:CIN 0.000295187
*RES
1 *494:SUM *503:CIN 40.1832 
*END

*D_NET *217 0.000781942
*CONN
*I *505:A I *D sky130_fd_sc_hd__fa_1
*I *495:COUT O *D sky130_fd_sc_hd__fa_1
*CAP
1 *505:A 0.000175538
2 *495:COUT 0.000175538
3 *505:A *518:A 6.22475e-05
4 *356:A *505:A 0.000110212
5 *16:14 *505:A 0.000179271
6 *170:16 *505:A 7.91354e-05
*RES
1 *495:COUT *505:A 25.012 
*END

*D_NET *218 0.00233339
*CONN
*I *504:CIN I *D sky130_fd_sc_hd__fa_1
*I *495:SUM O *D sky130_fd_sc_hd__fa_1
*CAP
1 *504:CIN 0.000782296
2 *495:SUM 0.000782296
3 *504:CIN *465:A 0.000174205
4 *504:CIN *503:A 7.236e-05
5 *504:CIN *517:A 5.6562e-05
6 *417:D *504:CIN 0
7 *458:B *504:CIN 2.72743e-05
8 *483:A *504:CIN 0.000101148
9 *494:B *504:CIN 0.00010687
10 *495:B *504:CIN 0.000212109
11 *72:10 *504:CIN 0
12 *192:14 *504:CIN 1.82679e-05
*RES
1 *495:SUM *504:CIN 49.0835 
*END

*D_NET *219 0.0033449
*CONN
*I *506:A I *D sky130_fd_sc_hd__fa_1
*I *496:COUT O *D sky130_fd_sc_hd__fa_1
*CAP
1 *506:A 0.00090601
2 *496:COUT 0.00090601
3 *506:A *594:A 0
4 *506:A *602:A 0
5 *8:10 *506:A 4.7798e-05
6 *8:31 *506:A 2.1716e-05
7 *15:10 *506:A 0.000488705
8 *16:16 *506:A 2.03024e-05
9 *16:18 *506:A 3.38603e-05
10 *170:16 *506:A 0.000920497
*RES
1 *496:COUT *506:A 45.8829 
*END

*D_NET *220 0.00381785
*CONN
*I *505:CIN I *D sky130_fd_sc_hd__fa_1
*I *496:SUM O *D sky130_fd_sc_hd__fa_1
*CAP
1 *505:CIN 0.00186567
2 *496:SUM 0.00186567
3 *505:CIN *323:19 1.5714e-05
4 *504:B *505:CIN 0
5 *505:B *505:CIN 4.80972e-05
6 *7:20 *505:CIN 2.26985e-05
*RES
1 *496:SUM *505:CIN 40.5006 
*END

*D_NET *221 0.00183411
*CONN
*I *508:A I *D sky130_fd_sc_hd__fa_1
*I *532:COUT O *D sky130_fd_sc_hd__ha_4
*CAP
1 *508:A 0.000347393
2 *532:COUT 0.000347393
3 *508:A *441:B 0.000363062
4 *508:A *508:B 0.000214277
5 *508:A *523:A 0.000122844
6 *508:A *329:12 0.000179286
7 *507:B *508:A 0.000242742
8 *508:CIN *508:A 1.71187e-05
*RES
1 *532:COUT *508:A 33.0412 
*END

*D_NET *222 0.0034515
*CONN
*I *507:CIN I *D sky130_fd_sc_hd__fa_1
*I *532:SUM O *D sky130_fd_sc_hd__ha_4
*CAP
1 *507:CIN 0
2 *532:SUM 0.00142534
3 *222:12 0.00142534
4 *222:12 P[1] 0.00030156
5 *478:A *222:12 0.000129974
6 *532:B *222:12 0.000112228
7 *610:A *222:12 2.16355e-05
8 *133:12 *222:12 0
9 *144:20 *222:12 3.54295e-05
*RES
1 *532:SUM *222:12 43.9445 
2 *222:12 *507:CIN 9.24915 
*END

*D_NET *223 0.00238466
*CONN
*I *509:A I *D sky130_fd_sc_hd__fa_1
*I *497:COUT O *D sky130_fd_sc_hd__fa_1
*CAP
1 *509:A 0.000685127
2 *497:COUT 0.000685127
3 *509:A *369:B 0.00012313
4 *509:A *510:CIN 0.000128363
5 *509:A *524:A 6.81185e-05
6 *509:A *524:B 3.36044e-05
7 *509:A *319:69 7.20116e-05
8 *369:A *509:A 0.000146519
9 *391:A1 *509:A 3.27437e-05
10 *499:CIN *509:A 2.8322e-05
11 *510:B *509:A 0
12 *651:A *509:A 0.000381591
*RES
1 *497:COUT *509:A 40.8438 
*END

*D_NET *224 0.0038493
*CONN
*I *508:B I *D sky130_fd_sc_hd__fa_1
*I *497:SUM O *D sky130_fd_sc_hd__fa_1
*CAP
1 *508:B 0.000867462
2 *497:SUM 0.000867462
3 *508:B *431:B 2.41274e-06
4 *508:B *432:A 0.000160942
5 *508:B *441:B 0.000152666
6 *508:B *523:B 0.000159038
7 *508:B *595:A 7.79058e-05
8 *508:B *596:A 0.000212275
9 *508:B *244:12 1.88422e-05
10 *508:B *329:24 0.000163165
11 *507:B *508:B 0
12 *508:A *508:B 0.000214277
13 *508:CIN *508:B 5.58964e-05
14 *521:B *508:B 5.69501e-06
15 *533:B *508:B 0.000337204
16 *610:A *508:B 0.000304627
17 *10:10 *508:B 0.000131432
18 *133:12 *508:B 3.92355e-05
19 *144:20 *508:B 7.87629e-05
*RES
1 *497:SUM *508:B 46.9978 
*END

*D_NET *225 0.00291912
*CONN
*I *510:A I *D sky130_fd_sc_hd__fa_1
*I *498:COUT O *D sky130_fd_sc_hd__fa_1
*CAP
1 *510:A 0.000672348
2 *498:COUT 0.000672348
3 *510:A *425:B 0.000208601
4 *510:A *522:A 5.04829e-06
5 *510:A *669:A 9.90152e-05
6 *510:A *677:A 0.000270608
7 *510:A *230:14 0.00012848
8 *485:CIN *510:A 0.000214292
9 *487:A *510:A 0.000348991
10 *487:CIN *510:A 0.00017416
11 *497:B *510:A 7.94015e-05
12 *498:B *510:A 1.92459e-05
13 *499:CIN *510:A 2.65831e-05
*RES
1 *498:COUT *510:A 42.9038 
*END

*D_NET *226 0.00299951
*CONN
*I *509:CIN I *D sky130_fd_sc_hd__fa_1
*I *498:SUM O *D sky130_fd_sc_hd__fa_1
*CAP
1 *509:CIN 0
2 *498:SUM 0.000762896
3 *226:12 0.000762896
4 *226:12 *448:A 0.00108711
5 *226:12 *510:CIN 0
6 *652:A *226:12 6.74667e-05
7 *11:39 *226:12 5.22654e-06
8 *11:54 *226:12 0.000313922
*RES
1 *498:SUM *226:12 44.6133 
2 *226:12 *509:CIN 9.24915 
*END

*D_NET *227 0.0038308
*CONN
*I *511:A I *D sky130_fd_sc_hd__fa_1
*I *499:COUT O *D sky130_fd_sc_hd__fa_1
*CAP
1 *511:A 5.92925e-05
2 *499:COUT 0.00104262
3 *227:14 0.00110192
4 *511:A *511:CIN 2.52414e-06
5 *511:A *522:B 5.19713e-05
6 *227:14 *369:B 0.000131685
7 *227:14 *401:B 0.000153225
8 *227:14 *522:A 0
9 *227:14 *230:14 0.00077516
10 *227:14 *319:69 3.28525e-05
11 *391:A1 *227:14 0.000130172
12 *499:A *227:14 2.29422e-05
13 *510:B *227:14 0.000326436
*RES
1 *499:COUT *227:14 45.7298 
2 *227:14 *511:A 6.24821 
*END

*D_NET *228 0.00152501
*CONN
*I *510:CIN I *D sky130_fd_sc_hd__fa_1
*I *499:SUM O *D sky130_fd_sc_hd__fa_1
*CAP
1 *510:CIN 0.000443822
2 *499:SUM 0.000443822
3 *509:A *510:CIN 0.000128363
4 *651:A *510:CIN 0.00033829
5 *652:A *510:CIN 4.53941e-05
6 *10:31 *510:CIN 2.58757e-05
7 *11:54 *510:CIN 9.94463e-05
8 *226:12 *510:CIN 0
*RES
1 *499:SUM *510:CIN 40.9066 
*END

*D_NET *229 0.000322091
*CONN
*I *512:A I *D sky130_fd_sc_hd__fa_2
*I *500:COUT O *D sky130_fd_sc_hd__fa_1
*CAP
1 *512:A 0.000132923
2 *500:COUT 0.000132923
3 *501:A *512:A 5.62448e-05
*RES
1 *500:COUT *512:A 21.69 
*END

*D_NET *230 0.0043061
*CONN
*I *511:CIN I *D sky130_fd_sc_hd__fa_1
*I *500:SUM O *D sky130_fd_sc_hd__fa_1
*CAP
1 *511:CIN 6.72624e-05
2 *500:SUM 0.00101049
3 *230:14 0.00107775
4 *511:CIN *522:B 6.07304e-07
5 *230:14 *369:B 3.72914e-05
6 *230:14 *401:B 6.4628e-05
7 *230:14 *425:B 0.000723227
8 *230:14 *522:A 8.68133e-05
9 *487:B *230:14 0.000151726
10 *487:CIN *230:14 1.2693e-05
11 *499:A *230:14 0.000167438
12 *510:A *230:14 0.00012848
13 *511:A *511:CIN 2.52414e-06
14 *227:14 *230:14 0.00077516
*RES
1 *500:SUM *230:14 46.9755 
2 *230:14 *511:CIN 15.0271 
*END

*D_NET *231 0.00239359
*CONN
*I *513:A I *D sky130_fd_sc_hd__fa_1
*I *501:COUT O *D sky130_fd_sc_hd__fa_2
*CAP
1 *513:A 0.000597651
2 *501:COUT 0.000597651
3 *513:A *234:16 0.00102899
4 *513:A *319:52 6.08467e-05
5 *379:B1 *513:A 0.000103412
6 *490:CIN *513:A 0
7 *493:CIN *513:A 0
8 *13:37 *513:A 5.04829e-06
*RES
1 *501:COUT *513:A 38.3189 
*END

*D_NET *232 0.000662558
*CONN
*I *512:B I *D sky130_fd_sc_hd__fa_2
*I *501:SUM O *D sky130_fd_sc_hd__fa_2
*CAP
1 *512:B 0.000240465
2 *501:SUM 0.000240465
3 *512:B *255:14 0
4 *512:B *319:52 1.83795e-06
5 *491:B *512:B 0.000149628
6 *500:B *512:B 0
7 *512:CIN *512:B 3.01634e-05
8 *184:18 *512:B 0
*RES
1 *501:SUM *512:B 24.5418 
*END

*D_NET *233 0.00270263
*CONN
*I *503:A I *D sky130_fd_sc_hd__fa_1
*I *502:COUT O *D sky130_fd_sc_hd__fa_2
*CAP
1 *503:A 0.000689101
2 *502:COUT 0.000689101
3 *503:A *465:A 0.000575481
4 *490:A *503:A 0
5 *493:A *503:A 5.71059e-05
6 *494:A *503:A 6.91684e-05
7 *494:CIN *503:A 0.000187269
8 *502:A *503:A 0.000357996
9 *503:B *503:A 0
10 *504:CIN *503:A 7.236e-05
11 *15:46 *503:A 5.04829e-06
*RES
1 *502:COUT *503:A 42.1217 
*END

*D_NET *234 0.00338539
*CONN
*I *513:CIN I *D sky130_fd_sc_hd__fa_1
*I *502:SUM O *D sky130_fd_sc_hd__fa_2
*CAP
1 *513:CIN 0
2 *502:SUM 0.00065701
3 *234:16 0.00065701
4 *234:16 *364:A 0
5 *234:16 *331:10 0.000336381
6 *234:16 *331:59 0.00022778
7 *379:A2 *234:16 0.00010695
8 *379:B1 *234:16 4.89158e-05
9 *490:CIN *234:16 0
10 *492:CIN *234:16 9.84406e-05
11 *502:B *234:16 7.42689e-05
12 *513:A *234:16 0.00102899
13 *13:37 *234:16 0.000149643
*RES
1 *502:SUM *234:16 45.5199 
2 *234:16 *513:CIN 9.24915 
*END

*D_NET *235 0.000484489
*CONN
*I *517:B I *D sky130_fd_sc_hd__ha_1
*I *503:COUT O *D sky130_fd_sc_hd__fa_1
*CAP
1 *517:B 0.000163175
2 *503:COUT 0.000163175
3 *481:A *517:B 9.44631e-06
4 *504:A *517:B 7.26748e-05
5 *504:B *517:B 7.60183e-05
*RES
1 *503:COUT *517:B 30.7476 
*END

*D_NET *236 0.000795656
*CONN
*I *534:B I *D sky130_fd_sc_hd__ha_1
*I *503:SUM O *D sky130_fd_sc_hd__fa_1
*CAP
1 *534:B 0.000257897
2 *503:SUM 0.000257897
3 *534:B *534:A 0.000131184
4 *503:CIN *534:B 8.36586e-06
5 *72:10 *534:B 0.000140311
*RES
1 *503:SUM *534:B 34.7608 
*END

*D_NET *237 0.00052961
*CONN
*I *525:A I *D sky130_fd_sc_hd__ha_1
*I *504:COUT O *D sky130_fd_sc_hd__fa_1
*CAP
1 *525:A 0.00020089
2 *504:COUT 0.00020089
3 *525:A *525:B 6.27718e-05
4 *55:10 *525:A 6.50586e-05
*RES
1 *504:COUT *525:A 23.128 
*END

*D_NET *238 0.00111798
*CONN
*I *517:A I *D sky130_fd_sc_hd__ha_1
*I *504:SUM O *D sky130_fd_sc_hd__fa_1
*CAP
1 *517:A 0.000259646
2 *504:SUM 0.000259646
3 *417:D *517:A 0.000112367
4 *419:A2 *517:A 0.000307799
5 *493:A *517:A 1.02917e-05
6 *494:B *517:A 0.000111672
7 *504:CIN *517:A 5.6562e-05
*RES
1 *504:SUM *517:A 34.9352 
*END

*D_NET *239 0.00151579
*CONN
*I *518:A I *D sky130_fd_sc_hd__ha_1
*I *505:COUT O *D sky130_fd_sc_hd__fa_1
*CAP
1 *518:A 0.000424159
2 *505:COUT 0.000424159
3 *518:A *518:B 0.000272175
4 *505:A *518:A 6.22475e-05
5 *56:10 *518:A 1.45944e-05
6 *56:18 *518:A 2.65831e-05
7 *170:16 *518:A 0.000291873
*RES
1 *505:COUT *518:A 41.5764 
*END

*D_NET *240 0.0011559
*CONN
*I *525:B I *D sky130_fd_sc_hd__ha_1
*I *505:SUM O *D sky130_fd_sc_hd__fa_1
*CAP
1 *525:B 0.000470704
2 *505:SUM 0.000470704
3 *356:A *525:B 3.22223e-05
4 *420:A2 *525:B 0.0001195
5 *525:A *525:B 6.27718e-05
*RES
1 *505:SUM *525:B 38.7699 
*END

*D_NET *241 0.00117261
*CONN
*I *519:A I *D sky130_fd_sc_hd__ha_1
*I *506:COUT O *D sky130_fd_sc_hd__fa_1
*CAP
1 *519:A 0.000466852
2 *506:COUT 0.000466852
3 *519:A P[14] 0
4 *519:A P[15] 0
5 *423:B *519:A 5.04746e-05
6 *170:16 *519:A 0.000188427
*RES
1 *506:COUT *519:A 40.435 
*END

*D_NET *242 0.00136307
*CONN
*I *518:B I *D sky130_fd_sc_hd__ha_1
*I *506:SUM O *D sky130_fd_sc_hd__fa_1
*CAP
1 *518:B 0.000528707
2 *506:SUM 0.000528707
3 *518:A *518:B 0.000272175
4 *56:10 *518:B 3.34802e-05
*RES
1 *506:SUM *518:B 37.9519 
*END

*D_NET *243 0.00109641
*CONN
*I *515:A I *D sky130_fd_sc_hd__ha_1
*I *533:COUT O *D sky130_fd_sc_hd__ha_1
*CAP
1 *515:A 0.000295553
2 *533:COUT 0.000295553
3 *515:A *478:CIN 0.000292532
4 *515:A *515:B 0
5 *352:B1 *515:A 6.14128e-05
6 *478:A *515:A 0.00011688
7 *611:A *515:A 3.4475e-05
*RES
1 *533:COUT *515:A 37.113 
*END

*D_NET *244 0.00183049
*CONN
*I *478:CIN I *D sky130_fd_sc_hd__fa_1
*I *516:B I *D sky130_fd_sc_hd__ha_1
*I *533:SUM O *D sky130_fd_sc_hd__ha_1
*CAP
1 *478:CIN 0.000190246
2 *516:B 0
3 *533:SUM 0.000307222
4 *244:12 0.000497468
5 *244:12 *523:B 0.000109421
6 *352:B1 *478:CIN 0.000339754
7 *508:B *244:12 1.88422e-05
8 *515:A *478:CIN 0.000292532
9 *645:A *478:CIN 7.2591e-05
10 *133:12 *244:12 2.41274e-06
*RES
1 *533:SUM *244:12 23.1623 
2 *244:12 *516:B 9.24915 
3 *244:12 *478:CIN 25.2358 
*END

*D_NET *245 0.00201792
*CONN
*I *523:A I *D sky130_fd_sc_hd__ha_4
*I *507:COUT O *D sky130_fd_sc_hd__fa_1
*CAP
1 *523:A 0.000593194
2 *507:COUT 0.000593194
3 *523:A *441:B 8.56291e-05
4 *523:A *523:B 6.14996e-05
5 *523:A *345:10 1.70077e-05
6 *370:B1 *523:A 3.40412e-05
7 *478:B *523:A 7.15593e-05
8 *508:A *523:A 0.000122844
9 *508:CIN *523:A 6.73023e-05
10 *620:A *523:A 0.0001703
11 *643:A *523:A 0.000201351
*RES
1 *507:COUT *523:A 45.2815 
*END

*D_NET *246 0.00166876
*CONN
*I *515:B I *D sky130_fd_sc_hd__ha_1
*I *507:SUM O *D sky130_fd_sc_hd__fa_1
*CAP
1 *515:B 0.000684323
2 *507:SUM 0.000684323
3 *371:A2 *515:B 2.41274e-06
4 *478:A *515:B 0.000209693
5 *515:A *515:B 0
6 *611:A *515:B 7.50722e-05
7 *37:8 *515:B 1.29364e-05
*RES
1 *507:SUM *515:B 42.9321 
*END

*D_NET *247 0.00151209
*CONN
*I *514:A I *D sky130_fd_sc_hd__ha_4
*I *508:COUT O *D sky130_fd_sc_hd__fa_1
*CAP
1 *514:A 0.000495617
2 *508:COUT 0.000495617
3 *514:A *441:A 9.78334e-05
4 *514:A *514:B 0.00011522
5 *514:A *524:A 0
6 *514:A *342:10 0.000307799
*RES
1 *508:COUT *514:A 38.2572 
*END

*D_NET *248 0.00188448
*CONN
*I *523:B I *D sky130_fd_sc_hd__ha_4
*I *508:SUM O *D sky130_fd_sc_hd__fa_1
*CAP
1 *523:B 0.000459407
2 *508:SUM 0.000459407
3 *523:B *441:B 0.000160524
4 *523:B *345:10 0.000166887
5 *352:A1 *523:B 0.000151473
6 *352:A2 *523:B 0
7 *352:B1 *523:B 0
8 *478:B *523:B 0.000156823
9 *508:B *523:B 0.000159038
10 *523:A *523:B 6.14996e-05
11 *244:12 *523:B 0.000109421
*RES
1 *508:SUM *523:B 42.8222 
*END

*D_NET *249 0.00172983
*CONN
*I *524:B I *D sky130_fd_sc_hd__ha_4
*I *509:COUT O *D sky130_fd_sc_hd__fa_1
*CAP
1 *524:B 0.000368863
2 *509:COUT 0.000368863
3 *524:B *524:A 0.000613335
4 *391:A1 *524:B 0.000107771
5 *509:A *524:B 3.36044e-05
6 *509:B *524:B 0.000160942
7 *36:12 *524:B 6.80864e-05
8 *54:14 *524:B 8.36586e-06
*RES
1 *509:COUT *524:B 40.4378 
*END

*D_NET *250 0.00031702
*CONN
*I *514:B I *D sky130_fd_sc_hd__ha_4
*I *509:SUM O *D sky130_fd_sc_hd__fa_1
*CAP
1 *514:B 0.0001009
2 *509:SUM 0.0001009
3 *514:A *514:B 0.00011522
*RES
1 *509:SUM *514:B 30.0537 
*END

*D_NET *251 0.00248418
*CONN
*I *522:A I *D sky130_fd_sc_hd__ha_4
*I *510:COUT O *D sky130_fd_sc_hd__fa_1
*CAP
1 *522:A 0.00044351
2 *510:COUT 0.00044351
3 *522:A *425:B 0.000472808
4 *522:A *522:B 0.000140063
5 *522:A *669:A 5.62448e-05
6 *522:A *299:16 0.000310696
7 *391:A1 *522:A 0
8 *391:A2 *522:A 0
9 *487:A *522:A 2.41274e-06
10 *489:A *522:A 1.89692e-05
11 *510:A *522:A 5.04829e-06
12 *511:B *522:A 0.000504109
13 *227:14 *522:A 0
14 *230:14 *522:A 8.68133e-05
*RES
1 *510:COUT *522:A 47.079 
*END

*D_NET *252 0.00186041
*CONN
*I *524:A I *D sky130_fd_sc_hd__ha_4
*I *510:SUM O *D sky130_fd_sc_hd__fa_1
*CAP
1 *524:A 0.000531446
2 *510:SUM 0.000531446
3 *509:A *524:A 6.81185e-05
4 *514:A *524:A 0
5 *524:B *524:A 0.000613335
6 *36:18 *524:A 4.8109e-05
7 *53:29 *524:A 5.71992e-05
8 *54:14 *524:A 1.07549e-05
*RES
1 *510:SUM *524:A 44.3116 
*END

*D_NET *253 0.000649872
*CONN
*I *526:A I *D sky130_fd_sc_hd__ha_4
*I *511:COUT O *D sky130_fd_sc_hd__fa_1
*CAP
1 *526:A 9.73539e-05
2 *511:COUT 9.73539e-05
3 *526:A *299:16 5.20546e-06
4 *391:B1 *526:A 0.000223188
5 *83:14 *526:A 0.000226771
*RES
1 *511:COUT *526:A 32.1299 
*END

*D_NET *254 0.000745548
*CONN
*I *522:B I *D sky130_fd_sc_hd__ha_4
*I *511:SUM O *D sky130_fd_sc_hd__fa_1
*CAP
1 *522:B 0.000272271
2 *511:SUM 0.000272271
3 *522:B *299:16 8.36429e-06
4 *391:A1 *522:B 0
5 *511:A *522:B 5.19713e-05
6 *511:CIN *522:B 6.07304e-07
7 *522:A *522:B 0.000140063
*RES
1 *511:SUM *522:B 34.7608 
*END

*D_NET *255 0.00357116
*CONN
*I *520:A I *D sky130_fd_sc_hd__ha_4
*I *512:COUT O *D sky130_fd_sc_hd__fa_2
*CAP
1 *520:A 7.60087e-05
2 *512:COUT 0.000834034
3 *255:14 0.000910042
4 *255:14 *468:A 6.04435e-05
5 *255:14 *325:42 6.68918e-05
6 *490:CIN *255:14 0.000146819
7 *491:A *255:14 0.000104079
8 *493:CIN *255:14 0.00076455
9 *501:A *255:14 0.000381058
10 *501:B *255:14 0.000113443
11 *512:B *255:14 0
12 *631:A *255:14 0
13 *47:10 *520:A 1.43698e-05
14 *48:10 *520:A 1.43832e-05
15 *58:10 *255:14 6.71883e-05
16 *184:18 *255:14 1.78514e-05
*RES
1 *512:COUT *255:14 48.8068 
2 *255:14 *520:A 11.0817 
*END

*D_NET *256 0.00565026
*CONN
*I *526:B I *D sky130_fd_sc_hd__ha_4
*I *512:SUM O *D sky130_fd_sc_hd__fa_2
*CAP
1 *526:B 0.00275764
2 *512:SUM 0.00275764
3 *526:B *425:B 0.000113119
4 *391:A2 *526:B 1.94472e-05
5 *57:10 *526:B 2.41274e-06
*RES
1 *512:SUM *526:B 41.5207 
*END

*D_NET *257 0.00108887
*CONN
*I *534:A I *D sky130_fd_sc_hd__ha_1
*I *513:COUT O *D sky130_fd_sc_hd__fa_1
*CAP
1 *534:A 0.00029713
2 *513:COUT 0.00029713
3 *417:D *534:A 6.27782e-05
4 *419:A2 *534:A 1.63652e-05
5 *493:B *534:A 0.000243809
6 *503:CIN *534:A 4.04751e-05
7 *534:B *534:A 0.000131184
*RES
1 *513:COUT *534:A 36.5906 
*END

*D_NET *258 0.000880551
*CONN
*I *520:B I *D sky130_fd_sc_hd__ha_4
*I *513:SUM O *D sky130_fd_sc_hd__fa_1
*CAP
1 *520:B 0.000369315
2 *513:SUM 0.000369315
3 *379:A1 *520:B 6.50233e-05
4 *631:A *520:B 7.30461e-06
5 *58:6 *520:B 9.5664e-06
6 *58:10 *520:B 6.00269e-05
*RES
1 *513:SUM *520:B 34.2118 
*END
