*SPEF "ieee 1481-1999"
*DESIGN "approx_dadda_d1"
*DATE "23:32:59 Sunday October 04, 2026"
*VENDOR "The OpenROAD Project"
*PROGRAM "OpenROAD"
*VERSION "26Q3-1499-g46ab99414e"
*DESIGN_FLOW "NAME_SCOPE LOCAL" "PIN_CAP NONE"
*DIVIDER /
*DELIMITER :
*BUS_DELIMITER []
*T_UNIT 1 NS
*C_UNIT 1 PF
*R_UNIT 1 OHM
*L_UNIT 1 HENRY

*NAME_MAP
*242 A[0]
*120 A[1]
*115 A[2]
*91 A[3]
*77 A[4]
*75 A[5]
*74 A[6]
*72 A[7]
*71 B[0]
*70 B[1]
*69 B[2]
*317 B[3]
*318 B[4]
*319 B[5]
*320 B[6]
*321 B[7]
*322 P[0]
*323 P[10]
*324 P[11]
*325 P[12]
*326 P[13]
*327 P[14]
*328 P[15]
*329 P[1]
*330 P[2]
*331 P[3]
*332 P[4]
*333 P[5]
*334 P[6]
*335 P[7]
*336 P[8]
*337 P[9]
*33 _000_
*34 _001_
*35 _002_
*36 _003_
*37 _004_
*38 _005_
*39 _006_
*40 _007_
*41 _008_
*42 _009_
*43 _010_
*44 _011_
*45 _012_
*46 _013_
*47 _014_
*48 _015_
*49 _016_
*50 _017_
*51 _018_
*52 _019_
*53 _020_
*54 _021_
*55 _022_
*56 _023_
*57 _024_
*58 _025_
*59 _026_
*60 _027_
*61 _028_
*62 _029_
*63 _030_
*64 _031_
*65 _032_
*66 _033_
*67 _034_
*68 _035_
*73 _040_
*76 _043_
*78 _045_
*79 _046_
*80 _047_
*81 _048_
*82 _049_
*83 _050_
*84 _051_
*85 _052_
*86 _053_
*87 _054_
*88 _055_
*89 _056_
*90 _057_
*92 _059_
*93 _060_
*94 _061_
*95 _062_
*96 _063_
*97 _064_
*98 _065_
*99 _066_
*100 _067_
*101 _068_
*102 _069_
*103 _070_
*104 _071_
*105 _072_
*106 _073_
*107 _074_
*108 _075_
*109 _076_
*110 _077_
*111 _078_
*112 _079_
*113 _080_
*114 _081_
*116 _083_
*117 _084_
*118 _085_
*119 _086_
*121 _088_
*122 _089_
*123 _090_
*124 _091_
*125 _092_
*126 _093_
*127 _094_
*128 _095_
*129 _096_
*130 _097_
*131 _098_
*132 _099_
*133 _100_
*134 _101_
*135 _102_
*136 _103_
*137 _104_
*138 _105_
*139 _106_
*140 _107_
*141 _108_
*142 _109_
*143 _110_
*144 _111_
*145 _112_
*146 _113_
*147 _114_
*148 _115_
*149 _116_
*150 _117_
*151 _118_
*152 _119_
*153 _120_
*154 _121_
*155 _122_
*156 _123_
*157 _124_
*158 _125_
*159 _126_
*160 _127_
*161 _128_
*162 _129_
*163 _130_
*164 _131_
*165 _132_
*166 _133_
*167 _134_
*168 _135_
*169 _136_
*170 _137_
*171 _138_
*172 _139_
*173 _140_
*174 _141_
*175 _142_
*176 _143_
*177 _144_
*178 _145_
*179 _146_
*180 _147_
*181 _148_
*182 _149_
*183 _150_
*184 _151_
*185 _152_
*186 _153_
*187 _154_
*188 _155_
*189 _156_
*190 _157_
*191 _158_
*192 _159_
*193 _160_
*194 _161_
*195 _162_
*196 _163_
*197 _164_
*198 _165_
*199 _166_
*200 _167_
*201 _168_
*202 _169_
*203 _170_
*204 _171_
*205 _172_
*206 _173_
*207 c10_carry
*208 c10_cout
*209 c11_carry
*210 c11_cout
*211 c12_carry
*212 c12_cout
*213 c13_carry
*214 c13_cout
*215 c14_carry
*216 c1_c10_c1
*217 c1_c10_cout
*218 c1_c10_fa_c
*219 c1_c11_c1
*220 c1_c11_cout
*221 c1_c12_c1
*222 c1_c12_cout
*223 c1_c13_c1
*224 c1_c13_cout
*225 c1_c5_c1
*226 c1_c7_fa_c
*227 c1_c8_c1
*228 c1_c8_c2
*229 c1_c9_c1
*230 c1_c9_c2
*231 c1_c9_cout1
*232 c1_c9_cout2
*233 c2_c3_c
*234 c3_carry
*235 c4_carry
*236 c5_carry
*237 c6_carry
*238 c7_carry
*239 c8_cout
*240 c9_carry
*241 c9_cout
*1 net1
*10 net10
*341 net100
*342 net101
*343 net102
*344 net103
*345 net104
*402 net105
*346 net106
*347 net107
*349 net108
*350 net109
*11 net11
*351 net110
*352 net111
*353 net112
*354 net113
*355 net114
*356 net115
*348 net116
*403 net117
*357 net118
*358 net119
*12 net12
*359 net120
*360 net121
*361 net122
*362 net123
*363 net124
*404 net125
*364 net126
*365 net127
*366 net128
*367 net129
*13 net13
*368 net130
*369 net131
*370 net132
*371 net133
*372 net134
*373 net135
*374 net136
*376 net137
*377 net138
*375 net139
*14 net14
*378 net140
*379 net141
*380 net142
*381 net143
*382 net144
*383 net145
*384 net146
*385 net147
*386 net148
*387 net149
*15 net15
*388 net150
*389 net151
*390 net152
*405 net153
*406 net154
*392 net155
*391 net156
*394 net157
*395 net158
*393 net159
*16 net16
*407 net160
*397 net161
*398 net162
*396 net163
*399 net164
*408 net165
*400 net166
*409 net167
*410 net168
*17 net17
*411 net171
*412 net174
*413 net178
*414 net179
*18 net18
*415 net180
*416 net181
*417 net182
*418 net187
*19 net19
*419 net193
*2 net2
*20 net20
*21 net21
*22 net22
*23 net23
*24 net24
*25 net25
*26 net26
*27 net27
*28 net28
*29 net29
*3 net3
*30 net30
*31 net31
*32 net32
*4 net4
*5 net5
*6 net6
*7 net7
*8 net8
*9 net9
*401 net96
*338 net97
*339 net98
*340 net99
*243 pp\[11\]\[0\]
*244 pp\[15\]\[0\]
*245 pp\[16\]\[0\]
*246 pp\[18\]\[0\]
*247 pp\[1\]\[0\]
*248 pp\[22\]\[0\]
*249 pp\[23\]\[0\]
*250 pp\[29\]\[0\]
*251 pp\[2\]\[0\]
*252 pp\[30\]\[0\]
*253 pp\[31\]\[0\]
*254 pp\[34\]\[0\]
*255 pp\[36\]\[0\]
*256 pp\[37\]\[0\]
*257 pp\[38\]\[0\]
*258 pp\[39\]\[0\]
*259 pp\[41\]\[0\]
*260 pp\[43\]\[0\]
*261 pp\[44\]\[0\]
*262 pp\[45\]\[0\]
*263 pp\[46\]\[0\]
*264 pp\[47\]\[0\]
*265 pp\[48\]\[0\]
*266 pp\[4\]\[0\]
*267 pp\[50\]\[0\]
*268 pp\[51\]\[0\]
*269 pp\[52\]\[0\]
*270 pp\[53\]\[0\]
*271 pp\[54\]\[0\]
*272 pp\[55\]\[0\]
*273 pp\[57\]\[0\]
*274 pp\[58\]\[0\]
*275 pp\[59\]\[0\]
*276 pp\[60\]\[0\]
*277 pp\[61\]\[0\]
*278 pp\[62\]\[0\]
*279 pp\[63\]\[0\]
*280 pp\[8\]\[0\]
*281 pp\[9\]\[0\]
*282 s1_c10_comp\.fa1\.sum
*283 s1_c10_comp\.fa2\.sum
*284 s1_c11_comp\.fa1\.sum
*285 s1_c11_comp\.fa2\.sum
*286 s1_c12_comp\.fa1\.sum
*287 s1_c12_comp\.fa2\.sum
*288 s1_c4_fa\.sum
*289 s1_c6_fa\.sum
*290 s1_c8_comp1\.fa1\.sum
*291 s1_c8_comp1\.fa2\.sum
*292 s1_c8_comp2\.fa1\.sum
*293 s1_c8_comp2\.fa2\.sum
*294 s1_c9_comp\.fa1\.sum
*295 s1_c9_comp\.fa2\.sum
*296 s1_c9_fa\.sum
*297 s2_c10_comp\.fa1\.sum
*298 s2_c10_comp\.fa2\.sum
*299 s2_c11_comp\.fa1\.sum
*300 s2_c11_comp\.fa2\.sum
*301 s2_c12_comp\.fa1\.sum
*302 s2_c12_comp\.fa2\.sum
*303 s2_c13_comp\.fa1\.sum
*304 s2_c13_comp\.fa2\.sum
*305 s2_c14_fa\.sum
*306 s2_c2_ha\.sum
*307 s2_c3_comp\.Sum
*308 s2_c4_comp\.Sum
*309 s2_c5_comp\.Sum
*310 s2_c6_comp\.Sum
*311 s2_c7_comp\.Sum
*312 s2_c8_comp\.fa1\.sum
*313 s2_c9_comp\.fa1\.sum
*314 s2_c9_comp\.fa2\.sum
*850 FILLER_0_0
*860 FILLER_0_107
*861 FILLER_0_121
*862 FILLER_0_134
*863 FILLER_0_142
*864 FILLER_0_151
*865 FILLER_0_155
*852 FILLER_0_16
*853 FILLER_0_20
*854 FILLER_0_25
*855 FILLER_0_29
*856 FILLER_0_31
*857 FILLER_0_39
*858 FILLER_0_65
*859 FILLER_0_73
*851 FILLER_0_8
*1004 FILLER_10_0
*1011 FILLER_10_111
*1012 FILLER_10_115
*1013 FILLER_10_122
*1014 FILLER_10_141
*1015 FILLER_10_149
*1016 FILLER_10_151
*1017 FILLER_10_155
*1005 FILLER_10_31
*1006 FILLER_10_52
*1007 FILLER_10_60
*1008 FILLER_10_68
*1009 FILLER_10_85
*1010 FILLER_10_89
*1029 FILLER_11_106
*1030 FILLER_11_112
*1031 FILLER_11_121
*1032 FILLER_11_131
*1033 FILLER_11_139
*1020 FILLER_11_14
*1034 FILLER_11_147
*1035 FILLER_11_155
*1021 FILLER_11_24
*1018 FILLER_11_4
*1022 FILLER_11_42
*1023 FILLER_11_46
*1024 FILLER_11_51
*1025 FILLER_11_61
*1026 FILLER_11_63
*1019 FILLER_11_8
*1027 FILLER_11_80
*1028 FILLER_11_97
*1036 FILLER_12_0
*1049 FILLER_12_103
*1050 FILLER_12_112
*1051 FILLER_12_141
*1052 FILLER_12_149
*1053 FILLER_12_151
*1054 FILLER_12_155
*1038 FILLER_12_23
*1039 FILLER_12_38
*1040 FILLER_12_40
*1041 FILLER_12_49
*1042 FILLER_12_61
*1043 FILLER_12_65
*1044 FILLER_12_67
*1045 FILLER_12_73
*1046 FILLER_12_79
*1037 FILLER_12_8
*1047 FILLER_12_91
*1048 FILLER_12_98
*1055 FILLER_13_0
*1068 FILLER_13_112
*1069 FILLER_13_114
*1070 FILLER_13_121
*1071 FILLER_13_129
*1072 FILLER_13_133
*1073 FILLER_13_143
*1074 FILLER_13_151
*1075 FILLER_13_155
*1057 FILLER_13_16
*1058 FILLER_13_24
*1059 FILLER_13_38
*1060 FILLER_13_56
*1061 FILLER_13_61
*1062 FILLER_13_68
*1063 FILLER_13_70
*1056 FILLER_13_8
*1064 FILLER_13_82
*1065 FILLER_13_84
*1066 FILLER_13_90
*1067 FILLER_13_98
*1076 FILLER_14_0
*1090 FILLER_14_107
*1091 FILLER_14_112
*1092 FILLER_14_116
*1093 FILLER_14_120
*1094 FILLER_14_128
*1095 FILLER_14_144
*1096 FILLER_14_148
*1097 FILLER_14_151
*1098 FILLER_14_155
*1078 FILLER_14_17
*1079 FILLER_14_25
*1080 FILLER_14_29
*1081 FILLER_14_42
*1077 FILLER_14_6
*1082 FILLER_14_62
*1083 FILLER_14_64
*1084 FILLER_14_77
*1085 FILLER_14_79
*1086 FILLER_14_85
*1087 FILLER_14_89
*1088 FILLER_14_91
*1089 FILLER_14_99
*1099 FILLER_15_0
*1100 FILLER_15_11
*1110 FILLER_15_121
*1111 FILLER_15_128
*1112 FILLER_15_141
*1113 FILLER_15_149
*1114 FILLER_15_153
*1115 FILLER_15_155
*1101 FILLER_15_34
*1102 FILLER_15_47
*1103 FILLER_15_55
*1104 FILLER_15_59
*1105 FILLER_15_61
*1106 FILLER_15_65
*1107 FILLER_15_67
*1108 FILLER_15_72
*1109 FILLER_15_89
*1116 FILLER_16_0
*1126 FILLER_16_103
*1119 FILLER_16_11
*1127 FILLER_16_111
*1128 FILLER_16_118
*1129 FILLER_16_129
*1130 FILLER_16_146
*1131 FILLER_16_151
*1132 FILLER_16_155
*1117 FILLER_16_2
*1120 FILLER_16_31
*1121 FILLER_16_55
*1122 FILLER_16_63
*1118 FILLER_16_7
*1123 FILLER_16_82
*1124 FILLER_16_91
*1125 FILLER_16_98
*1133 FILLER_17_0
*1143 FILLER_17_121
*1144 FILLER_17_123
*1145 FILLER_17_127
*1146 FILLER_17_131
*1147 FILLER_17_148
*1136 FILLER_17_38
*1134 FILLER_17_4
*1135 FILLER_17_6
*1137 FILLER_17_61
*1138 FILLER_17_72
*1139 FILLER_17_74
*1140 FILLER_17_87
*1141 FILLER_17_95
*1142 FILLER_17_97
*1148 FILLER_18_0
*1150 FILLER_18_10
*1160 FILLER_18_111
*1161 FILLER_18_115
*1162 FILLER_18_117
*1163 FILLER_18_149
*1164 FILLER_18_151
*1165 FILLER_18_155
*1151 FILLER_18_31
*1152 FILLER_18_38
*1153 FILLER_18_42
*1149 FILLER_18_6
*1154 FILLER_18_63
*1155 FILLER_18_71
*1156 FILLER_18_73
*1157 FILLER_18_81
*1158 FILLER_18_88
*1159 FILLER_18_96
*1166 FILLER_19_0
*1168 FILLER_19_12
*1176 FILLER_19_121
*1177 FILLER_19_132
*1178 FILLER_19_140
*1179 FILLER_19_148
*1169 FILLER_19_18
*1170 FILLER_19_55
*1171 FILLER_19_59
*1172 FILLER_19_61
*1173 FILLER_19_65
*1167 FILLER_19_8
*1174 FILLER_19_92
*1175 FILLER_19_98
*866 FILLER_1_0
*876 FILLER_1_108
*877 FILLER_1_119
*878 FILLER_1_121
*879 FILLER_1_129
*880 FILLER_1_131
*881 FILLER_1_141
*882 FILLER_1_149
*883 FILLER_1_153
*884 FILLER_1_155
*868 FILLER_1_16
*869 FILLER_1_20
*870 FILLER_1_22
*871 FILLER_1_30
*872 FILLER_1_34
*873 FILLER_1_52
*874 FILLER_1_66
*867 FILLER_1_8
*875 FILLER_1_91
*1180 FILLER_20_0
*1182 FILLER_20_10
*1190 FILLER_20_102
*1191 FILLER_20_106
*1192 FILLER_20_112
*1193 FILLER_20_120
*1194 FILLER_20_124
*1195 FILLER_20_143
*1196 FILLER_20_147
*1197 FILLER_20_149
*1198 FILLER_20_151
*1199 FILLER_20_155
*1183 FILLER_20_27
*1184 FILLER_20_29
*1185 FILLER_20_41
*1186 FILLER_20_49
*1181 FILLER_20_8
*1187 FILLER_20_81
*1188 FILLER_20_83
*1189 FILLER_20_88
*1200 FILLER_21_0
*1202 FILLER_21_10
*1210 FILLER_21_103
*1211 FILLER_21_113
*1212 FILLER_21_117
*1213 FILLER_21_119
*1203 FILLER_21_12
*1214 FILLER_21_121
*1215 FILLER_21_136
*1216 FILLER_21_144
*1217 FILLER_21_152
*1204 FILLER_21_25
*1205 FILLER_21_32
*1201 FILLER_21_6
*1206 FILLER_21_61
*1207 FILLER_21_87
*1208 FILLER_21_91
*1209 FILLER_21_95
*1218 FILLER_22_0
*1226 FILLER_22_119
*1227 FILLER_22_127
*1220 FILLER_22_13
*1228 FILLER_22_139
*1229 FILLER_22_147
*1230 FILLER_22_149
*1231 FILLER_22_151
*1232 FILLER_22_155
*1221 FILLER_22_24
*1222 FILLER_22_37
*1219 FILLER_22_4
*1223 FILLER_22_55
*1224 FILLER_22_91
*1225 FILLER_22_97
*1233 FILLER_23_0
*1246 FILLER_23_101
*1247 FILLER_23_116
*1248 FILLER_23_121
*1249 FILLER_23_129
*1250 FILLER_23_137
*1251 FILLER_23_145
*1252 FILLER_23_153
*1253 FILLER_23_155
*1235 FILLER_23_16
*1236 FILLER_23_30
*1237 FILLER_23_39
*1238 FILLER_23_53
*1239 FILLER_23_57
*1240 FILLER_23_59
*1241 FILLER_23_61
*1242 FILLER_23_65
*1243 FILLER_23_76
*1234 FILLER_23_8
*1244 FILLER_23_83
*1245 FILLER_23_93
*1254 FILLER_24_0
*1262 FILLER_24_111
*1263 FILLER_24_118
*1264 FILLER_24_126
*1265 FILLER_24_134
*1266 FILLER_24_142
*1267 FILLER_24_151
*1268 FILLER_24_155
*1256 FILLER_24_16
*1257 FILLER_24_31
*1258 FILLER_24_45
*1255 FILLER_24_8
*1259 FILLER_24_81
*1260 FILLER_24_83
*1261 FILLER_24_91
*1269 FILLER_25_0
*1279 FILLER_25_103
*1280 FILLER_25_116
*1281 FILLER_25_121
*1282 FILLER_25_134
*1283 FILLER_25_142
*1284 FILLER_25_151
*1285 FILLER_25_155
*1271 FILLER_25_16
*1272 FILLER_25_20
*1273 FILLER_25_26
*1274 FILLER_25_44
*1275 FILLER_25_61
*1270 FILLER_25_8
*1276 FILLER_25_85
*1277 FILLER_25_89
*1278 FILLER_25_95
*885 FILLER_2_0
*893 FILLER_2_109
*894 FILLER_2_123
*895 FILLER_2_130
*896 FILLER_2_138
*897 FILLER_2_148
*898 FILLER_2_151
*899 FILLER_2_155
*887 FILLER_2_37
*888 FILLER_2_39
*889 FILLER_2_56
*890 FILLER_2_71
*886 FILLER_2_8
*891 FILLER_2_91
*892 FILLER_2_93
*900 FILLER_3_0
*905 FILLER_3_103
*906 FILLER_3_116
*902 FILLER_3_12
*907 FILLER_3_121
*908 FILLER_3_135
*909 FILLER_3_143
*910 FILLER_3_151
*911 FILLER_3_155
*903 FILLER_3_46
*904 FILLER_3_79
*901 FILLER_3_8
*912 FILLER_4_0
*914 FILLER_4_10
*924 FILLER_4_102
*925 FILLER_4_109
*926 FILLER_4_133
*927 FILLER_4_135
*915 FILLER_4_14
*928 FILLER_4_145
*929 FILLER_4_149
*930 FILLER_4_151
*931 FILLER_4_155
*916 FILLER_4_16
*917 FILLER_4_28
*918 FILLER_4_38
*913 FILLER_4_4
*919 FILLER_4_42
*920 FILLER_4_60
*921 FILLER_4_83
*922 FILLER_4_89
*923 FILLER_4_91
*932 FILLER_5_0
*941 FILLER_5_106
*942 FILLER_5_121
*943 FILLER_5_129
*944 FILLER_5_139
*945 FILLER_5_144
*946 FILLER_5_152
*934 FILLER_5_47
*935 FILLER_5_49
*933 FILLER_5_6
*936 FILLER_5_61
*937 FILLER_5_73
*938 FILLER_5_81
*939 FILLER_5_88
*940 FILLER_5_99
*947 FILLER_6_0
*955 FILLER_6_116
*956 FILLER_6_124
*957 FILLER_6_132
*958 FILLER_6_140
*959 FILLER_6_148
*960 FILLER_6_151
*961 FILLER_6_155
*948 FILLER_6_2
*949 FILLER_6_29
*950 FILLER_6_31
*951 FILLER_6_41
*952 FILLER_6_63
*953 FILLER_6_83
*954 FILLER_6_89
*962 FILLER_7_0
*968 FILLER_7_107
*969 FILLER_7_111
*970 FILLER_7_129
*971 FILLER_7_134
*972 FILLER_7_136
*963 FILLER_7_14
*973 FILLER_7_149
*974 FILLER_7_153
*975 FILLER_7_155
*964 FILLER_7_39
*965 FILLER_7_79
*966 FILLER_7_83
*967 FILLER_7_85
*976 FILLER_8_0
*986 FILLER_8_120
*987 FILLER_8_132
*988 FILLER_8_142
*989 FILLER_8_151
*990 FILLER_8_155
*978 FILLER_8_16
*979 FILLER_8_50
*980 FILLER_8_58
*977 FILLER_8_6
*981 FILLER_8_78
*982 FILLER_8_85
*983 FILLER_8_89
*984 FILLER_8_97
*985 FILLER_8_99
*991 FILLER_9_0
*998 FILLER_9_100
*999 FILLER_9_121
*1000 FILLER_9_137
*1001 FILLER_9_141
*1002 FILLER_9_151
*1003 FILLER_9_155
*993 FILLER_9_36
*994 FILLER_9_43
*995 FILLER_9_51
*996 FILLER_9_59
*997 FILLER_9_79
*992 FILLER_9_9
*677 TAP_TAPCELL_ROW_0_0
*678 TAP_TAPCELL_ROW_0_1
*679 TAP_TAPCELL_ROW_0_2
*680 TAP_TAPCELL_ROW_0_3
*681 TAP_TAPCELL_ROW_0_4
*704 TAP_TAPCELL_ROW_10_27
*705 TAP_TAPCELL_ROW_10_28
*706 TAP_TAPCELL_ROW_10_29
*707 TAP_TAPCELL_ROW_11_30
*708 TAP_TAPCELL_ROW_11_31
*709 TAP_TAPCELL_ROW_12_32
*710 TAP_TAPCELL_ROW_12_33
*711 TAP_TAPCELL_ROW_12_34
*712 TAP_TAPCELL_ROW_13_35
*713 TAP_TAPCELL_ROW_13_36
*714 TAP_TAPCELL_ROW_14_37
*715 TAP_TAPCELL_ROW_14_38
*716 TAP_TAPCELL_ROW_14_39
*717 TAP_TAPCELL_ROW_15_40
*718 TAP_TAPCELL_ROW_15_41
*719 TAP_TAPCELL_ROW_16_42
*720 TAP_TAPCELL_ROW_16_43
*721 TAP_TAPCELL_ROW_16_44
*722 TAP_TAPCELL_ROW_17_45
*723 TAP_TAPCELL_ROW_17_46
*724 TAP_TAPCELL_ROW_18_47
*725 TAP_TAPCELL_ROW_18_48
*726 TAP_TAPCELL_ROW_18_49
*727 TAP_TAPCELL_ROW_19_50
*728 TAP_TAPCELL_ROW_19_51
*682 TAP_TAPCELL_ROW_1_5
*683 TAP_TAPCELL_ROW_1_6
*729 TAP_TAPCELL_ROW_20_52
*730 TAP_TAPCELL_ROW_20_53
*731 TAP_TAPCELL_ROW_20_54
*732 TAP_TAPCELL_ROW_21_55
*733 TAP_TAPCELL_ROW_21_56
*734 TAP_TAPCELL_ROW_22_57
*735 TAP_TAPCELL_ROW_22_58
*736 TAP_TAPCELL_ROW_22_59
*737 TAP_TAPCELL_ROW_23_60
*738 TAP_TAPCELL_ROW_23_61
*739 TAP_TAPCELL_ROW_24_62
*740 TAP_TAPCELL_ROW_24_63
*741 TAP_TAPCELL_ROW_24_64
*742 TAP_TAPCELL_ROW_25_65
*743 TAP_TAPCELL_ROW_25_66
*744 TAP_TAPCELL_ROW_25_67
*745 TAP_TAPCELL_ROW_25_68
*746 TAP_TAPCELL_ROW_25_69
*684 TAP_TAPCELL_ROW_2_7
*685 TAP_TAPCELL_ROW_2_8
*686 TAP_TAPCELL_ROW_2_9
*687 TAP_TAPCELL_ROW_3_10
*688 TAP_TAPCELL_ROW_3_11
*689 TAP_TAPCELL_ROW_4_12
*690 TAP_TAPCELL_ROW_4_13
*691 TAP_TAPCELL_ROW_4_14
*692 TAP_TAPCELL_ROW_5_15
*693 TAP_TAPCELL_ROW_5_16
*694 TAP_TAPCELL_ROW_6_17
*695 TAP_TAPCELL_ROW_6_18
*696 TAP_TAPCELL_ROW_6_19
*697 TAP_TAPCELL_ROW_7_20
*698 TAP_TAPCELL_ROW_7_21
*699 TAP_TAPCELL_ROW_8_22
*700 TAP_TAPCELL_ROW_8_23
*701 TAP_TAPCELL_ROW_8_24
*702 TAP_TAPCELL_ROW_9_25
*703 TAP_TAPCELL_ROW_9_26
*420 _174_
*421 _175_
*422 _176_
*423 _177_
*424 _178_
*425 _179_
*426 _180_
*427 _181_
*428 _182_
*429 _183_
*430 _184_
*431 _185_
*432 _186_
*433 _187_
*435 _189_
*437 _191_
*439 _193_
*441 _195_
*442 _196_
*443 _197_
*444 _198_
*445 _199_
*446 _200_
*447 _201_
*449 _203_
*451 _205_
*452 _206_
*453 _207_
*454 _208_
*455 _209_
*457 _211_
*458 _212_
*459 _213_
*460 _214_
*461 _215_
*462 _216_
*463 _217_
*464 _218_
*465 _219_
*466 _220_
*467 _221_
*468 _222_
*469 _223_
*470 _224_
*472 _226_
*473 _227_
*474 _228_
*475 _229_
*476 _230_
*477 _231_
*478 _232_
*479 _233_
*480 _234_
*481 _235_
*482 _236_
*483 _237_
*484 _238_
*485 _239_
*486 _240_
*487 _241_
*488 _242_
*489 _243_
*490 _244_
*491 _245_
*492 _246_
*493 _247_
*494 _248_
*495 _249_
*496 _250_
*497 _251_
*498 _252_
*499 _253_
*500 _254_
*502 _256_
*503 _257_
*504 _258_
*505 _259_
*506 _260_
*507 _261_
*508 _262_
*509 _263_
*510 _264_
*511 _265_
*512 _266_
*513 _267_
*514 _268_
*515 _269_
*516 _270_
*518 _272_
*519 _273_
*520 _274_
*521 _275_
*522 _276_
*523 _277_
*524 _278_
*525 _279_
*526 _280_
*527 _281_
*528 _282_
*529 _283_
*530 _284_
*531 _285_
*532 _286_
*533 _287_
*534 _288_
*535 _289_
*536 _290_
*537 _291_
*538 _292_
*539 _293_
*540 _294_
*541 _295_
*542 _296_
*543 _297_
*544 _298_
*545 _299_
*546 _300_
*547 _301_
*548 _302_
*549 _303_
*550 _304_
*551 _305_
*552 _306_
*553 _307_
*554 _308_
*555 _309_
*556 _310_
*557 _311_
*558 _312_
*559 _313_
*560 _314_
*561 _315_
*562 _316_
*563 _317_
*564 _318_
*565 _319_
*566 _320_
*567 _321_
*568 _322_
*569 _323_
*570 _324_
*571 _325_
*572 _326_
*573 _327_
*574 _328_
*575 _329_
*576 _330_
*577 _331_
*578 _332_
*579 _333_
*580 _334_
*581 _335_
*582 _336_
*583 _337_
*584 _338_
*585 _339_
*586 _340_
*587 _341_
*588 _342_
*589 _343_
*590 _344_
*591 _345_
*592 _346_
*593 _347_
*594 _348_
*595 _349_
*596 _350_
*597 _351_
*598 _352_
*599 _353_
*600 _354_
*601 _355_
*602 _356_
*603 _357_
*604 _358_
*605 _359_
*606 _360_
*607 _361_
*608 _362_
*609 _363_
*610 _364_
*611 _365_
*612 _366_
*613 _367_
*614 _368_
*615 _369_
*616 _370_
*617 _371_
*618 _372_
*619 _373_
*620 _374_
*621 _375_
*622 _376_
*623 _377_
*624 _378_
*625 _379_
*626 _380_
*627 _381_
*628 _382_
*629 _383_
*630 _384_
*631 _385_
*632 _386_
*633 _387_
*634 _388_
*635 _389_
*636 _390_
*637 _391_
*638 _392_
*639 _393_
*640 _394_
*641 _395_
*642 _396_
*643 _397_
*644 _398_
*645 _399_
*646 _400_
*647 _401_
*648 _402_
*649 _403_
*650 _404_
*651 _405_
*652 _406_
*653 _407_
*654 _408_
*655 _409_
*656 _410_
*657 _411_
*658 _412_
*659 _413_
*660 _414_
*661 _415_
*662 _416_
*663 _417_
*664 _418_
*665 _419_
*666 _420_
*667 _421_
*668 _422_
*669 _423_
*670 _424_
*671 _425_
*672 _426_
*673 _427_
*674 _428_
*675 _429_
*676 input1
*436 input10
*434 input11
*747 input12
*748 input13
*749 input14
*750 input15
*751 input16
*517 input2
*501 input3
*471 input4
*456 input5
*450 input6
*448 input7
*440 input8
*438 input9
*752 output17
*753 output18
*754 output19
*755 output20
*756 output21
*757 output22
*758 output23
*759 output24
*760 output25
*761 output26
*762 output27
*763 output28
*764 output29
*765 output30
*766 output31
*767 output32
*771 place100
*772 place101
*773 place102
*774 place103
*775 place104
*832 place105
*776 place106
*777 place107
*779 place108
*780 place109
*781 place110
*782 place111
*783 place112
*784 place113
*785 place114
*786 place115
*778 place116
*833 place117
*787 place118
*788 place119
*789 place120
*790 place121
*791 place122
*792 place123
*793 place124
*834 place125
*794 place126
*795 place127
*796 place128
*797 place129
*798 place130
*799 place131
*800 place132
*801 place133
*802 place134
*803 place135
*804 place136
*806 place137
*807 place138
*805 place139
*808 place140
*809 place141
*810 place142
*811 place143
*812 place144
*813 place145
*814 place146
*815 place147
*816 place148
*817 place149
*818 place150
*819 place151
*820 place152
*835 place153
*836 place154
*822 place155
*821 place156
*824 place157
*825 place158
*823 place159
*837 place160
*827 place161
*828 place162
*826 place163
*829 place164
*838 place165
*831 place96
*768 place97
*769 place98
*770 place99
*830 rebuffer166
*839 rebuffer167
*840 rebuffer168
*841 rebuffer171
*842 rebuffer174
*843 rebuffer178
*844 rebuffer179
*845 rebuffer180
*846 rebuffer181
*847 rebuffer182
*848 rebuffer187
*849 rebuffer193

*PORTS
A[0] I
A[1] I
A[2] I
A[3] I
A[4] I
A[5] I
A[6] I
A[7] I
B[0] I
B[1] I
B[2] I
B[3] I
B[4] I
B[5] I
B[6] I
B[7] I
P[0] O
P[10] O
P[11] O
P[12] O
P[13] O
P[14] O
P[15] O
P[1] O
P[2] O
P[3] O
P[4] O
P[5] O
P[6] O
P[7] O
P[8] O
P[9] O

*D_NET *242 0.001807
*CONN
*P A[0] I
*I *676:A I *D sky130_fd_sc_hd__buf_2
*CAP
1 A[0] 0.00060826
2 *676:A 0.00060826
3 *676:A *747:A 0.000393779
4 *471:A *676:A 5.01755e-05
5 *501:A *676:A 4.10643e-05
6 *624:B *676:A 0.000105459
*RES
1 A[0] *676:A 23.9961 
*END

*D_NET *120 0.00119342
*CONN
*P A[1] I
*I *517:A I *D sky130_fd_sc_hd__buf_6
*CAP
1 A[1] 0.000505312
2 *517:A 0.000505312
3 *501:A *517:A 1.67063e-05
4 *2:14 *517:A 0.000166094
*RES
1 A[1] *517:A 29.0308 
*END

*D_NET *115 0.00234984
*CONN
*P A[2] I
*I *501:A I *D sky130_fd_sc_hd__buf_6
*CAP
1 A[2] 0.00110614
2 *501:A 0.00110614
3 *501:A *517:A 1.67063e-05
4 *501:A *676:A 4.10643e-05
5 *3:14 *501:A 7.97944e-05
*RES
1 A[2] *501:A 44.8132 
*END

*D_NET *91 0.00272958
*CONN
*P A[3] I
*I *471:A I *D sky130_fd_sc_hd__buf_6
*CAP
1 A[3] 0.00074317
2 *471:A 0.00074317
3 *471:A *676:A 5.01755e-05
4 *471:A *747:A 0.000882109
5 *471:A *387:10 7.00887e-05
6 *471:A *408:16 0.000134073
7 *624:B *471:A 0.000106798
*RES
1 A[3] *471:A 25.6841 
*END

*D_NET *77 0.000994681
*CONN
*P A[4] I
*I *456:A I *D sky130_fd_sc_hd__buf_8
*CAP
1 A[4] 0.000294076
2 *456:A 0.000294076
3 *456:A P[1] 0.000145401
4 *759:A *456:A 0.000261128
*RES
1 A[4] *456:A 22.9786 
*END

*D_NET *75 0.0012686
*CONN
*P A[5] I
*I *450:A I *D sky130_fd_sc_hd__buf_6
*CAP
1 A[5] 0.000455555
2 *450:A 0.000455555
3 *450:A *637:A 0
4 *450:A *637:B 5.39608e-05
5 *450:A *284:20 0
6 *450:A *392:12 5.54078e-05
7 *6:12 *450:A 0.00011818
8 *6:16 *450:A 9.98029e-06
9 *6:32 *450:A 1.77537e-06
10 *14:21 *450:A 0.00011818
*RES
1 A[5] *450:A 26.1168 
*END

*D_NET *74 0.000469467
*CONN
*P A[6] I
*I *448:A I *D sky130_fd_sc_hd__buf_2
*CAP
1 A[6] 0.000227541
2 *448:A 0.000227541
3 *448:A *751:A 0
4 *7:10 *448:A 1.43848e-05
*RES
1 A[6] *448:A 19.4728 
*END

*D_NET *72 0.00213078
*CONN
*P A[7] I
*I *440:A I *D sky130_fd_sc_hd__dlygate4sd2_1
*CAP
1 A[7] 0.0005207
2 *440:A 0.0005207
3 *440:A *649:CIN 0.000107729
4 *440:A *651:CIN 0.000115909
5 *440:A *666:A 0.00068327
6 *440:A *673:A 4.89392e-05
7 *440:A *673:B 0
8 *440:A *751:A 0.000133531
9 *54:10 *440:A 0
*RES
1 A[7] *440:A 32.7609 
*END

*D_NET *71 0.00498445
*CONN
*P B[0] I
*I *438:A I *D sky130_fd_sc_hd__dlygate4sd2_1
*CAP
1 B[0] 0.00112584
2 *438:A 0
3 *71:13 0.00112584
4 *71:13 *469:B 0
5 *71:13 *551:A 1.40045e-05
6 *71:13 *565:D 0
7 *71:13 *641:B 0.000365578
8 *71:13 *89:6 4.24629e-05
9 *71:13 *193:12 3.84663e-05
10 *71:13 *382:14 0.000115055
11 *71:13 *386:10 0
12 *71:13 *398:8 0.000523303
13 *71:13 *398:14 0.00036196
14 *443:B *71:13 0.000164842
15 *522:A *71:13 0.000217587
16 *812:A *71:13 0.000521099
17 *10:24 *71:13 3.12551e-05
18 *11:36 *71:13 0.00033717
*RES
1 B[0] *71:13 44.3476 
2 *71:13 *438:A 9.24915 
*END

*D_NET *70 0.000895544
*CONN
*P B[1] I
*I *436:A I *D sky130_fd_sc_hd__buf_2
*CAP
1 B[1] 0.000416383
2 *436:A 0.000416383
3 *436:A P[0] 0
4 *436:A *125:18 6.27782e-05
*RES
1 B[1] *436:A 23.9096 
*END

*D_NET *69 0.000800314
*CONN
*P B[2] I
*I *434:A I *D sky130_fd_sc_hd__buf_8
*CAP
1 B[2] 0.000400157
2 *434:A 0.000400157
*RES
1 B[2] *434:A 23.355 
*END

*D_NET *317 0.00192628
*CONN
*P B[3] I
*I *747:A I *D sky130_fd_sc_hd__buf_4
*CAP
1 B[3] 0.00032431
2 *747:A 0.00032431
3 *471:A *747:A 0.000882109
4 *624:B *747:A 0
5 *676:A *747:A 0.000393779
6 *2:14 *747:A 1.77537e-06
*RES
1 B[3] *747:A 21.6903 
*END

*D_NET *318 0.00076343
*CONN
*P B[4] I
*I *748:A I *D sky130_fd_sc_hd__buf_6
*CAP
1 B[4] 0.000335186
2 *748:A 0.000335186
3 *748:A *749:A 2.79993e-05
4 *13:14 *748:A 6.50586e-05
*RES
1 B[4] *748:A 22.2458 
*END

*D_NET *319 0.000974756
*CONN
*P B[5] I
*I *749:A I *D sky130_fd_sc_hd__buf_6
*CAP
1 B[5] 0.000473378
2 *749:A 0.000473378
3 *748:A *749:A 2.79993e-05
4 *13:14 *749:A 0
*RES
1 B[5] *749:A 25.7849 
*END

*D_NET *320 0.000684021
*CONN
*P B[6] I
*I *750:A I *D sky130_fd_sc_hd__buf_6
*CAP
1 B[6] 0.000280822
2 *750:A 0.000280822
3 *15:12 *750:A 0.000122378
*RES
1 B[6] *750:A 21.1366 
*END

*D_NET *321 0.0023622
*CONN
*P B[7] I
*I *751:A I *D sky130_fd_sc_hd__buf_8
*CAP
1 B[7] 0.000519913
2 *751:A 0.000519913
3 *440:A *751:A 0.000133531
4 *448:A *751:A 0
5 *650:B *751:A 0.000124246
6 *666:A *751:A 0.000564522
7 *666:B *751:A 0.000207379
8 *672:A *751:A 0.00022067
9 *672:B *751:A 7.20265e-05
*RES
1 B[7] *751:A 33.1817 
*END

*D_NET *322 0.00186392
*CONN
*P P[0] O
*I *752:X O *D sky130_fd_sc_hd__clkdlybuf4s50_1
*CAP
1 P[0] 0.000404202
2 *752:X 0.000404202
3 P[0] *543:B1 0.0002087
4 P[0] *376:10 6.08467e-05
5 *436:A P[0] 0
6 *542:B1 P[0] 7.92757e-06
7 *544:A P[0] 6.08467e-05
8 *123:12 P[0] 0.00015901
9 *123:23 P[0] 5.34588e-05
10 *126:29 P[0] 0.0002087
11 *307:22 P[0] 0.000296024
*RES
1 *752:X P[0] 27.5075 
*END

*D_NET *323 0.000554759
*CONN
*P P[10] O
*I *753:X O *D sky130_fd_sc_hd__buf_2
*CAP
1 P[10] 0.000161087
2 *753:X 0.000161087
3 P[10] P[11] 0
4 P[10] P[9] 0.000232585
*RES
1 *753:X P[10] 18.8492 
*END

*D_NET *324 0.000970184
*CONN
*P P[11] O
*I *754:X O *D sky130_fd_sc_hd__buf_2
*CAP
1 P[11] 0.000412258
2 *754:X 0.000412258
3 P[11] P[12] 8.9891e-05
4 P[11] *432:B 2.35705e-05
5 P[10] P[11] 0
6 *432:A P[11] 3.87022e-06
7 *754:A P[11] 2.83365e-05
*RES
1 *754:X P[11] 21.6467 
*END

*D_NET *325 0.000448699
*CONN
*P P[12] O
*I *755:X O *D sky130_fd_sc_hd__buf_2
*CAP
1 P[12] 0.000179404
2 *755:X 0.000179404
3 P[12] P[13] 0
4 P[11] P[12] 8.9891e-05
*RES
1 *755:X P[12] 18.1717 
*END

*D_NET *326 0.000539116
*CONN
*P P[13] O
*I *756:X O *D sky130_fd_sc_hd__buf_2
*CAP
1 P[13] 0.000247313
2 *756:X 0.000247313
3 P[13] *487:B 2.02035e-05
4 P[13] *497:A 2.42876e-05
5 P[12] P[13] 0
*RES
1 *756:X P[13] 18.5869 
*END

*D_NET *327 0.00125541
*CONN
*P P[14] O
*I *757:X O *D sky130_fd_sc_hd__buf_2
*CAP
1 P[14] 0.000401402
2 *757:X 0.000401402
3 P[14] P[15] 0.000185213
4 *53:10 P[14] 0
5 *54:10 P[14] 0
6 *110:12 P[14] 0.000267394
*RES
1 *757:X P[14] 23.6281 
*END

*D_NET *328 0.00117337
*CONN
*P P[15] O
*I *758:X O *D sky130_fd_sc_hd__buf_2
*CAP
1 P[15] 0.00049408
2 *758:X 0.00049408
3 P[14] P[15] 0.000185213
*RES
1 *758:X P[15] 23.4283 
*END

*D_NET *329 0.00142058
*CONN
*P P[1] O
*I *759:X O *D sky130_fd_sc_hd__clkdlybuf4s50_1
*CAP
1 P[1] 0.000578065
2 *759:X 0.000578065
3 P[1] P[2] 0.000104941
4 *456:A P[1] 0.000145401
5 *759:A P[1] 1.4106e-05
*RES
1 *759:X P[1] 24.7429 
*END

*D_NET *330 0.000521919
*CONN
*P P[2] O
*I *760:X O *D sky130_fd_sc_hd__clkdlybuf4s50_1
*CAP
1 P[2] 0.000206988
2 *760:X 0.000206988
3 P[1] P[2] 0.000104941
4 *760:A P[2] 3.00174e-06
*RES
1 *760:X P[2] 19.4728 
*END

*D_NET *331 0.0007906
*CONN
*P P[3] O
*I *761:X O *D sky130_fd_sc_hd__dlygate4sd2_1
*CAP
1 P[3] 0.000358343
2 *761:X 0.000358343
3 P[3] P[4] 2.79993e-05
4 *762:A P[3] 5.04829e-06
5 *58:16 P[3] 4.08658e-05
*RES
1 *761:X P[3] 21.2099 
*END

*D_NET *332 0.000668056
*CONN
*P P[4] O
*I *762:X O *D sky130_fd_sc_hd__buf_2
*CAP
1 P[4] 0.000293455
2 *762:X 0.000293455
3 P[3] P[4] 2.79993e-05
4 *762:A P[4] 5.31465e-05
*RES
1 *762:X P[4] 20.6697 
*END

*D_NET *333 0.000442647
*CONN
*P P[5] O
*I *763:X O *D sky130_fd_sc_hd__buf_2
*CAP
1 P[5] 0.000221323
2 *763:X 0.000221323
3 P[5] P[6] 0
*RES
1 *763:X P[5] 18.1717 
*END

*D_NET *334 0.000398067
*CONN
*P P[6] O
*I *764:X O *D sky130_fd_sc_hd__buf_2
*CAP
1 P[6] 0.000199034
2 *764:X 0.000199034
3 P[6] P[7] 0
4 P[5] P[6] 0
*RES
1 *764:X P[6] 18.1717 
*END

*D_NET *335 0.000518081
*CONN
*P P[7] O
*I *765:X O *D sky130_fd_sc_hd__buf_2
*CAP
1 P[7] 0.000259041
2 *765:X 0.000259041
3 P[7] P[8] 0
4 P[6] P[7] 0
*RES
1 *765:X P[7] 18.2481 
*END

*D_NET *336 0.000592321
*CONN
*P P[8] O
*I *766:X O *D sky130_fd_sc_hd__buf_2
*CAP
1 P[8] 0.000284754
2 *766:X 0.000284754
3 P[8] *627:A 2.28129e-05
4 P[7] P[8] 0
*RES
1 *766:X P[8] 19.0022 
*END

*D_NET *337 0.00155004
*CONN
*P P[9] O
*I *767:X O *D sky130_fd_sc_hd__buf_2
*CAP
1 P[9] 0.00043044
2 *767:X 0.00043044
3 P[10] P[9] 0.000232585
4 *753:A P[9] 0.000456573
5 *767:A P[9] 0
*RES
1 *767:X P[9] 25.7469 
*END

*D_NET *33 0.00140612
*CONN
*I *798:A I *D sky130_fd_sc_hd__buf_4
*I *655:B I *D sky130_fd_sc_hd__fa_2
*I *657:COUT O *D sky130_fd_sc_hd__ha_1
*CAP
1 *798:A 0.000234243
2 *655:B 0.000573633
3 *657:COUT 0.00033939
4 *655:B *657:A 4.89392e-05
5 *798:A *34:8 5.21396e-05
6 *798:A *368:8 0.000107496
7 *760:A *655:B 2.41338e-05
8 *760:A *798:A 2.61492e-05
*RES
1 *657:COUT *655:B 17.1221 
2 *655:B *798:A 15.4583 
*END

*D_NET *34 0.00339021
*CONN
*I *478:A1 I *D sky130_fd_sc_hd__a211oi_2
*I *834:A I *D sky130_fd_sc_hd__buf_4
*I *655:COUT O *D sky130_fd_sc_hd__fa_2
*CAP
1 *478:A1 0.000331509
2 *834:A 0.000198827
3 *655:COUT 0.000623541
4 *34:8 0.00115388
5 *478:A1 *35:10 3.66868e-05
6 *478:A1 *46:10 0.000623436
7 *478:A1 *58:16 0
8 *478:A1 *59:14 0.000104607
9 *478:A1 *358:14 6.25467e-05
10 *834:A *404:10 2.84892e-05
11 *34:8 *422:B1 0.000110458
12 *34:8 *849:A 2.58757e-05
13 *34:8 *368:8 3.82228e-05
14 *798:A *34:8 5.21396e-05
*RES
1 *655:COUT *34:8 18.8703 
2 *34:8 *834:A 12.625 
3 *34:8 *478:A1 30.8777 
*END

*D_NET *35 0.00290398
*CONN
*I *423:C1 I *D sky130_fd_sc_hd__a2111oi_4
*I *783:A I *D sky130_fd_sc_hd__buf_4
*I *656:COUT O *D sky130_fd_sc_hd__ha_4
*CAP
1 *423:C1 0
2 *783:A 0.00029757
3 *656:COUT 0.000588664
4 *35:10 0.000886234
5 *783:A *423:A1 0
6 *783:A *423:D1 0
7 *783:A *38:10 0.000173912
8 *783:A *353:10 0.000110297
9 *35:10 *656:A 0.000215683
10 *35:10 *790:A 3.82228e-05
11 *35:10 *36:12 0.000107496
12 *35:10 *38:10 0.000171677
13 *35:10 *38:19 0.000153252
14 *35:10 *46:10 9.29919e-05
15 *35:10 *309:18 2.30636e-05
16 *35:10 *403:14 8.23171e-06
17 *478:A1 *35:10 3.66868e-05
*RES
1 *656:COUT *35:10 30.4399 
2 *35:10 *783:A 21.7084 
3 *35:10 *423:C1 13.7491 
*END

*D_NET *36 0.00375413
*CONN
*I *479:B1 I *D sky130_fd_sc_hd__o21ai_1
*I *425:A1 I *D sky130_fd_sc_hd__o211ai_1
*I *782:A I *D sky130_fd_sc_hd__buf_4
*I *656:SUM O *D sky130_fd_sc_hd__ha_4
*CAP
1 *479:B1 0
2 *425:A1 0.000381865
3 *782:A 6.38271e-05
4 *656:SUM 0.000832927
5 *36:14 0.000594995
6 *36:12 0.00098223
7 *425:A1 *425:A2 9.71311e-05
8 *425:A1 *633:A 0.000141728
9 *782:A *352:8 4.89251e-05
10 *36:12 *479:A1 3.30578e-05
11 *36:12 *631:B1_N 0.000114659
12 *36:12 *787:A 4.57631e-05
13 *36:12 *790:A 0.000136313
14 *36:12 *358:14 5.04423e-06
15 *36:12 *360:18 2.99287e-05
16 *36:14 *479:A2 0.000112361
17 *36:14 *480:A2 5.04829e-06
18 *36:14 *352:8 2.08274e-05
19 *35:10 *36:12 0.000107496
*RES
1 *656:SUM *36:12 32.3119 
2 *36:12 *36:14 4.05102 
3 *36:14 *782:A 11.1059 
4 *36:14 *425:A1 28.3862 
5 *36:12 *479:B1 9.24915 
*END

*D_NET *37 0.00770426
*CONN
*I *421:B1 I *D sky130_fd_sc_hd__a211oi_1
*I *422:A2 I *D sky130_fd_sc_hd__o21ai_2
*I *790:A I *D sky130_fd_sc_hd__buf_4
*I *478:B1 I *D sky130_fd_sc_hd__a211oi_2
*I *658:COUT O *D sky130_fd_sc_hd__ha_4
*CAP
1 *421:B1 0.000249357
2 *422:A2 0.000199271
3 *790:A 0.000194019
4 *478:B1 0.000222654
5 *658:COUT 0.000853967
6 *37:36 0.000592297
7 *37:23 0.000448283
8 *37:10 0.00118722
9 *421:B1 *421:A1 0.000143175
10 *421:B1 *421:A2 4.3116e-06
11 *421:B1 *421:C1 0.000276623
12 *421:B1 *514:A1 0.000284794
13 *421:B1 *514:B1 8.90486e-05
14 *421:B1 *793:A 0.000122378
15 *422:A2 *422:A1 5.73228e-05
16 *422:A2 *422:B1 6.08467e-05
17 *422:A2 *515:A2 2.02114e-05
18 *478:B1 *478:C1 1.02267e-05
19 *478:B1 *46:10 1.74139e-05
20 *790:A *358:14 0.000463934
21 *790:A *360:18 6.3657e-05
22 *790:A *403:14 0.000117292
23 *37:10 *423:A1 0
24 *37:10 *423:B1 4.14089e-05
25 *37:10 *658:B 0.000273022
26 *37:10 *38:10 0.000460995
27 *37:23 *423:B1 1.59362e-06
28 *37:23 *788:A 8.71996e-05
29 *37:23 *38:10 2.36748e-05
30 *37:23 *38:19 0.000209477
31 *37:36 *422:A1 0.000212491
32 *37:36 *422:B1 2.40368e-05
33 *37:36 *788:A 2.04806e-05
34 *37:36 *38:19 0.00013592
35 *37:36 *46:10 2.53624e-06
36 *37:36 *403:14 0.000358589
37 *35:10 *790:A 3.82228e-05
38 *36:12 *790:A 0.000136313
*RES
1 *658:COUT *37:10 30.164 
2 *37:10 *478:B1 18.3789 
3 *37:10 *37:23 4.32351 
4 *37:23 *790:A 22.237 
5 *37:23 *37:36 11.7303 
6 *37:36 *422:A2 13.8789 
7 *37:36 *421:B1 28.0088 
*END

*D_NET *38 0.00360165
*CONN
*I *422:A1 I *D sky130_fd_sc_hd__o21ai_2
*I *789:A I *D sky130_fd_sc_hd__buf_4
*I *478:A2 I *D sky130_fd_sc_hd__a211oi_2
*I *658:SUM O *D sky130_fd_sc_hd__ha_4
*CAP
1 *422:A1 0.000146613
2 *789:A 0.0002237
3 *478:A2 0
4 *658:SUM 0.000174169
5 *38:19 0.000513048
6 *38:10 0.000316905
7 *422:A1 *422:B1 6.50727e-05
8 *422:A1 *515:A2 8.39059e-05
9 *422:A1 *46:10 8.96809e-05
10 *789:A *788:A 6.50586e-05
11 *789:A *358:14 8.57221e-05
12 *789:A *359:6 0.000161234
13 *38:10 *423:A1 0
14 *38:19 *46:10 7.78213e-05
15 *422:A2 *422:A1 5.73228e-05
16 *783:A *38:10 0.000173912
17 *35:10 *38:10 0.000171677
18 *35:10 *38:19 0.000153252
19 *37:10 *38:10 0.000460995
20 *37:23 *38:10 2.36748e-05
21 *37:23 *38:19 0.000209477
22 *37:36 *422:A1 0.000212491
23 *37:36 *38:19 0.00013592
*RES
1 *658:SUM *38:10 22.1209 
2 *38:10 *478:A2 13.7491 
3 *38:10 *38:19 6.39977 
4 *38:19 *789:A 19.6569 
5 *38:19 *422:A1 20.0446 
*END

*D_NET *39 0.00599557
*CONN
*I *494:B1 I *D sky130_fd_sc_hd__a21o_1
*I *431:B1 I *D sky130_fd_sc_hd__a21oi_2
*I *484:C I *D sky130_fd_sc_hd__nand3_1
*I *659:COUT O *D sky130_fd_sc_hd__ha_4
*CAP
1 *494:B1 0.000177397
2 *431:B1 0.000250832
3 *484:C 0.000104257
4 *659:COUT 0.00071703
5 *39:38 0.00108425
6 *39:18 0.00162359
7 *431:B1 *432:B 6.80864e-05
8 *431:B1 *487:C 0.00015324
9 *431:B1 *497:B 0.000235865
10 *484:C *482:A 3.25494e-05
11 *484:C *488:B 4.73301e-05
12 *484:C *773:A 6.27782e-05
13 *484:C *204:14 0.000168829
14 *494:B1 *486:A2 0
15 *494:B1 *529:A1 0.000108401
16 *494:B1 *628:A2 5.18861e-05
17 *494:B1 *42:21 0.000144572
18 *494:B1 *55:10 0.000125695
19 *494:B1 *67:20 8.75372e-05
20 *494:B1 *400:32 0
21 *39:18 *485:B1 1.91391e-05
22 *39:18 *496:A2 6.78549e-05
23 *39:18 *659:A 0.000261135
24 *39:18 *40:12 0.000108743
25 *39:38 *482:B 2.41568e-05
26 *39:38 *482:C 6.08467e-05
27 *39:38 *489:A2 2.27135e-05
28 *39:38 *497:B 0.000160178
29 *39:38 *628:B1 1.5714e-05
30 *39:38 *400:32 1.09587e-05
*RES
1 *659:COUT *39:18 31.6011 
2 *39:18 *39:38 17.6182 
3 *39:38 *484:C 22.0503 
4 *39:38 *431:B1 25.5414 
5 *39:18 *494:B1 23.3101 
*END

*D_NET *40 0.00575843
*CONN
*I *491:B I *D sky130_fd_sc_hd__nand2_1
*I *487:C I *D sky130_fd_sc_hd__nand3_1
*I *772:A I *D sky130_fd_sc_hd__buf_4
*I *494:A2 I *D sky130_fd_sc_hd__a21o_1
*I *659:SUM O *D sky130_fd_sc_hd__ha_4
*CAP
1 *491:B 0
2 *487:C 0.000390938
3 *772:A 2.39386e-05
4 *494:A2 0
5 *659:SUM 0.000315289
6 *40:34 0.00047892
7 *40:23 0.000563112
8 *40:12 0.000766481
9 *487:C *420:A 8.93679e-05
10 *487:C *432:B 2.5619e-05
11 *487:C *487:A 9.03268e-05
12 *487:C *487:B 5.31465e-05
13 *487:C *488:C 5.31465e-05
14 *487:C *780:A 0.000220755
15 *772:A *342:10 6.08467e-05
16 *40:12 *485:B1 0.000400164
17 *40:12 *496:A2 5.8973e-05
18 *40:12 *628:A2 0.00035155
19 *40:12 *102:19 5.41227e-05
20 *40:23 *486:A1 9.98207e-05
21 *40:23 *486:B1 6.50727e-05
22 *40:23 *486:C1 3.58044e-05
23 *40:23 *486:D1 0.000107496
24 *40:23 *489:A2 5.51483e-06
25 *40:23 *494:A1 6.08467e-05
26 *40:23 *66:27 5.8973e-05
27 *40:23 *104:10 0.00081003
28 *40:23 *342:10 4.56831e-05
29 *40:34 *420:A 4.078e-05
30 *40:34 *431:A2 9.96342e-05
31 *40:34 *432:B 5.2504e-06
32 *40:34 *630:B 5.41227e-05
33 *40:34 *780:A 1.07248e-05
34 *431:B1 *487:C 0.00015324
35 *39:18 *40:12 0.000108743
*RES
1 *659:SUM *40:12 30.085 
2 *40:12 *494:A2 9.24915 
3 *40:12 *40:23 15.1913 
4 *40:23 *772:A 9.97254 
5 *40:23 *40:34 7.57775 
6 *40:34 *487:C 27.4067 
7 *40:34 *491:B 13.7491 
*END

*D_NET *41 0.00204771
*CONN
*I *781:A I *D sky130_fd_sc_hd__buf_4
*I *485:A1 I *D sky130_fd_sc_hd__a21oi_4
*I *660:COUT O *D sky130_fd_sc_hd__ha_1
*CAP
1 *781:A 0.000283473
2 *485:A1 0
3 *660:COUT 0.000320801
4 *41:10 0.000604274
5 *781:A *485:A2 1.07248e-05
6 *781:A *495:B1 6.08467e-05
7 *781:A *771:A 0.000112361
8 *781:A *314:6 0.000131924
9 *41:10 *485:A2 0.000508935
10 *41:10 *485:B1 0
11 *41:10 *660:A 1.43698e-05
12 *41:10 *771:A 0
*RES
1 *660:COUT *41:10 23.3638 
2 *41:10 *485:A1 13.7491 
3 *41:10 *781:A 22.263 
*END

*D_NET *42 0.00501291
*CONN
*I *491:A I *D sky130_fd_sc_hd__nand2_1
*I *780:A I *D sky130_fd_sc_hd__buf_4
*I *495:A2 I *D sky130_fd_sc_hd__a21oi_2
*I *484:A I *D sky130_fd_sc_hd__nand3_1
*I *660:SUM O *D sky130_fd_sc_hd__ha_1
*CAP
1 *491:A 0
2 *780:A 0.000129853
3 *495:A2 0
4 *484:A 0.000296413
5 *660:SUM 0.000136693
6 *42:32 0.000405505
7 *42:21 0.000477514
8 *42:6 0.000634968
9 *484:A *486:B1 9.81698e-05
10 *484:A *489:B1 8.43875e-05
11 *484:A *830:A 6.53312e-05
12 *484:A *54:31 7.27533e-05
13 *484:A *103:6 6.08467e-05
14 *780:A *420:A 8.76366e-05
15 *780:A *497:B 0.000109421
16 *780:A *67:20 1.92336e-05
17 *780:A *109:8 2.65831e-05
18 *780:A *350:8 0.000111352
19 *42:6 *54:31 5.40236e-05
20 *42:21 *496:A2 3.16337e-06
21 *42:21 *496:B1_N 0.000130548
22 *42:21 *529:A1 1.29591e-05
23 *42:21 *400:32 0.000109978
24 *42:21 *410:20 1.19971e-05
25 *42:32 *431:A2 1.03434e-05
26 *42:32 *528:A1 0.000300565
27 *42:32 *528:A3 6.08467e-05
28 *42:32 *528:B1 3.60363e-05
29 *42:32 *529:A1 3.99086e-06
30 *42:32 *67:20 0.000937648
31 *42:32 *109:8 3.27589e-05
32 *42:32 *113:6 1.03403e-05
33 *42:32 *410:20 0.000104996
34 *487:C *780:A 0.000220755
35 *494:B1 *42:21 0.000144572
36 *40:34 *780:A 1.07248e-05
*RES
1 *660:SUM *42:6 12.191 
2 *42:6 *484:A 17.2065 
3 *42:6 *42:21 14.9845 
4 *42:21 *495:A2 9.24915 
5 *42:21 *42:32 12.2736 
6 *42:32 *780:A 24.1588 
7 *42:32 *491:A 9.24915 
*END

*D_NET *43 0.00314786
*CONN
*I *779:A I *D sky130_fd_sc_hd__buf_4
*I *483:B1 I *D sky130_fd_sc_hd__a21oi_2
*I *661:COUT O *D sky130_fd_sc_hd__ha_4
*CAP
1 *779:A 0.000488599
2 *483:B1 9.06746e-05
3 *661:COUT 0.000553612
4 *43:10 0.00113289
5 *779:A *428:B1 1.88014e-05
6 *779:A *445:B 0.000112199
7 *779:A *620:B 8.62625e-06
8 *779:A *621:C1 3.12075e-05
9 *779:A *843:A 0.000299956
10 *779:A *361:10 3.11022e-05
11 *779:A *361:12 2.17582e-05
12 *43:10 *445:B 0.000139359
13 *43:10 *620:B 0.000204693
14 *43:10 *661:B 1.43832e-05
*RES
1 *661:COUT *43:10 25.0332 
2 *43:10 *483:B1 15.5817 
3 *43:10 *779:A 26.5846 
*END

*D_NET *44 0.00225309
*CONN
*I *777:A I *D sky130_fd_sc_hd__buf_4
*I *483:A1 I *D sky130_fd_sc_hd__a21oi_2
*I *661:SUM O *D sky130_fd_sc_hd__ha_4
*CAP
1 *777:A 0.000535653
2 *483:A1 0
3 *661:SUM 0.000165891
4 *44:10 0.000701544
5 *777:A *483:A2 0.000219249
6 *777:A *493:A1 6.08467e-05
7 *777:A *493:A2 6.50727e-05
8 *777:A *493:B1 6.16063e-05
9 *777:A *775:A 0.000111708
10 *44:10 *429:A 0.000118002
11 *44:10 *446:A 0.000135738
12 *44:10 *446:B 1.65078e-05
13 *44:10 *65:22 0
14 *44:10 *102:19 6.12721e-05
*RES
1 *661:SUM *44:10 23.8184 
2 *44:10 *483:A1 9.24915 
3 *44:10 *777:A 23.3313 
*END

*D_NET *45 0.00266353
*CONN
*I *848:A I *D sky130_fd_sc_hd__buf_4
*I *788:A I *D sky130_fd_sc_hd__buf_4
*I *662:COUT O *D sky130_fd_sc_hd__ha_2
*CAP
1 *848:A 0
2 *788:A 0.000334914
3 *662:COUT 0.00069178
4 *45:8 0.00102669
5 *788:A *358:14 0.000111708
6 *788:A *403:14 0.000123582
7 *45:8 *423:B1 0.000112367
8 *45:8 *662:A 5.29538e-05
9 *45:8 *46:10 2.61808e-05
10 *45:8 *234:14 1.06115e-05
11 *789:A *788:A 6.50586e-05
12 *37:23 *788:A 8.71996e-05
13 *37:36 *788:A 2.04806e-05
*RES
1 *662:COUT *45:8 20.3894 
2 *45:8 *788:A 27.4514 
3 *45:8 *848:A 9.24915 
*END

*D_NET *46 0.00311727
*CONN
*I *833:A I *D sky130_fd_sc_hd__buf_4
*I *849:A I *D sky130_fd_sc_hd__buf_4
*I *662:SUM O *D sky130_fd_sc_hd__ha_2
*CAP
1 *833:A 0.000165172
2 *849:A 2.58245e-05
3 *662:SUM 0.000845229
4 *46:10 0.00103623
5 *46:10 *422:B1 6.89594e-05
6 *46:10 *423:B1 1.99195e-05
7 *422:A1 *46:10 8.96809e-05
8 *478:A1 *46:10 0.000623436
9 *478:B1 *46:10 1.74139e-05
10 *34:8 *849:A 2.58757e-05
11 *35:10 *46:10 9.29919e-05
12 *37:36 *46:10 2.53624e-06
13 *38:19 *46:10 7.78213e-05
14 *45:8 *46:10 2.61808e-05
*RES
1 *662:SUM *46:10 33.8957 
2 *46:10 *849:A 14.4725 
3 *46:10 *833:A 17.6574 
*END

*D_NET *47 0.0025091
*CONN
*I *423:A1 I *D sky130_fd_sc_hd__a2111oi_4
*I *776:A I *D sky130_fd_sc_hd__buf_4
*I *663:COUT O *D sky130_fd_sc_hd__ha_1
*CAP
1 *423:A1 0.000259628
2 *776:A 0.000661225
3 *663:COUT 0.000106301
4 *47:6 0.00102715
5 *423:A1 *423:B1 5.03545e-06
6 *776:A *481:B1 0.000166937
7 *776:A *774:A 2.16355e-05
8 *776:A *48:8 2.09932e-05
9 *776:A *344:8 5.24672e-05
10 *776:A *413:24 0.000132082
11 *47:6 *663:A 5.56461e-05
12 *783:A *423:A1 0
13 *37:10 *423:A1 0
14 *38:10 *423:A1 0
*RES
1 *663:COUT *47:6 11.0817 
2 *47:6 *776:A 21.6674 
3 *47:6 *423:A1 24.2337 
*END

*D_NET *48 0.00309386
*CONN
*I *425:B1 I *D sky130_fd_sc_hd__o211ai_1
*I *832:A I *D sky130_fd_sc_hd__buf_4
*I *663:SUM O *D sky130_fd_sc_hd__ha_1
*CAP
1 *425:B1 0
2 *832:A 0.000137619
3 *663:SUM 0.000861304
4 *48:8 0.000998923
5 *832:A *425:A2 0.00017419
6 *832:A *452:B 0
7 *832:A *481:A1 0
8 *832:A *633:B 0.00011818
9 *832:A *100:10 2.58518e-05
10 *48:8 *425:C1 0.000407257
11 *48:8 *344:8 0.000339444
12 *48:8 *413:24 1.00937e-05
13 *776:A *48:8 2.09932e-05
*RES
1 *663:SUM *48:8 23.7171 
2 *48:8 *832:A 23.0201 
3 *48:8 *425:B1 9.24915 
*END

*D_NET *49 0.00404735
*CONN
*I *423:D1 I *D sky130_fd_sc_hd__a2111oi_4
*I *426:B1 I *D sky130_fd_sc_hd__a21oi_1
*I *775:A I *D sky130_fd_sc_hd__buf_4
*I *664:COUT O *D sky130_fd_sc_hd__ha_1
*CAP
1 *423:D1 0.00036739
2 *426:B1 0
3 *775:A 0.000428282
4 *664:COUT 0.00021328
5 *49:10 0.000656044
6 *49:8 0.000808431
7 *423:D1 *423:A2 0.000350775
8 *423:D1 *611:B 0
9 *423:D1 *50:8 0.000143032
10 *423:D1 *310:12 0
11 *423:D1 *413:24 4.43286e-05
12 *775:A *428:B1 0
13 *775:A *446:B 0
14 *775:A *493:B1 4.81015e-05
15 *775:A *843:A 0.000413873
16 *775:A *61:10 0.000151494
17 *775:A *65:22 0.000168303
18 *49:8 *664:B 6.86583e-05
19 *49:10 *426:A1 6.64392e-05
20 *49:10 *427:B 2.41274e-06
21 *49:10 *344:40 4.79321e-06
22 *777:A *775:A 0.000111708
23 *783:A *423:D1 0
*RES
1 *664:COUT *49:8 14.4335 
2 *49:8 *49:10 4.60562 
3 *49:10 *775:A 32.5709 
4 *49:10 *426:B1 9.24915 
5 *49:8 *423:D1 29.2167 
*END

*D_NET *50 0.00228108
*CONN
*I *423:A2 I *D sky130_fd_sc_hd__a2111oi_4
*I *774:A I *D sky130_fd_sc_hd__buf_4
*I *664:SUM O *D sky130_fd_sc_hd__ha_1
*CAP
1 *423:A2 0.000665052
2 *774:A 2.50285e-05
3 *664:SUM 6.73835e-05
4 *50:8 0.000757464
5 *423:A2 *424:B1 6.08467e-05
6 *423:A2 *58:16 5.04829e-06
7 *423:A2 *59:14 7.92757e-06
8 *423:A2 *61:10 0
9 *423:A2 *413:24 2.26421e-05
10 *774:A *344:8 2.16355e-05
11 *50:8 *413:24 0.000132607
12 *423:D1 *423:A2 0.000350775
13 *423:D1 *50:8 0.000143032
14 *776:A *774:A 2.16355e-05
*RES
1 *664:SUM *50:8 16.4116 
2 *50:8 *774:A 14.4725 
3 *50:8 *423:A2 30.3247 
*END

*D_NET *51 0.00147648
*CONN
*I *421:C1 I *D sky130_fd_sc_hd__a211oi_1
*I *793:A I *D sky130_fd_sc_hd__buf_4
*I *665:COUT O *D sky130_fd_sc_hd__ha_1
*CAP
1 *421:C1 0.000216459
2 *793:A 3.26748e-05
3 *665:COUT 0.000218687
4 *51:12 0.000467822
5 *421:C1 *421:A1 1.94615e-05
6 *421:C1 *421:A2 0
7 *421:C1 *52:10 0
8 *793:A *514:B1 0.000122378
9 *51:12 *655:CIN 0
10 *51:12 *52:10 0
11 *421:B1 *421:C1 0.000276623
12 *421:B1 *793:A 0.000122378
*RES
1 *665:COUT *51:12 23.2989 
2 *51:12 *793:A 11.0817 
3 *51:12 *421:C1 24.6489 
*END

*D_NET *52 0.0009657
*CONN
*I *421:A2 I *D sky130_fd_sc_hd__a211oi_1
*I *514:A2 I *D sky130_fd_sc_hd__a21o_1
*I *665:SUM O *D sky130_fd_sc_hd__ha_1
*CAP
1 *421:A2 0.000245571
2 *514:A2 0
3 *665:SUM 0.000163212
4 *52:10 0.000408783
5 *421:A2 *421:A1 9.51287e-05
6 *421:A2 *514:A1 4.8694e-05
7 *421:A2 *403:14 0
8 *52:10 *403:14 0
9 *421:B1 *421:A2 4.3116e-06
10 *421:C1 *421:A2 0
11 *421:C1 *52:10 0
12 *51:12 *52:10 0
*RES
1 *665:SUM *52:10 17.135 
2 *52:10 *514:A2 13.7491 
3 *52:10 *421:A2 20.5642 
*END

*D_NET *53 0.00497894
*CONN
*I *485:B1 I *D sky130_fd_sc_hd__a21oi_4
*I *529:B1 I *D sky130_fd_sc_hd__a21oi_2
*I *666:COUT O *D sky130_fd_sc_hd__ha_4
*CAP
1 *485:B1 0.00031126
2 *529:B1 0
3 *666:COUT 0.00112939
4 *53:10 0.00144065
5 *485:B1 *420:B 0
6 *485:B1 *495:B1 0.000198737
7 *485:B1 *628:A2 0.000124954
8 *485:B1 *771:A 0
9 *485:B1 *110:12 0.000348203
10 *53:10 P[14] 0
11 *53:10 *529:A1 3.87022e-06
12 *53:10 *530:B 0
13 *53:10 *628:A2 3.00174e-06
14 *53:10 *651:A 0.000352268
15 *53:10 *666:B 1.03403e-05
16 *53:10 *54:10 0
17 *53:10 *110:12 0.000636963
18 *39:18 *485:B1 1.91391e-05
19 *40:12 *485:B1 0.000400164
20 *41:10 *485:B1 0
*RES
1 *666:COUT *53:10 38.1932 
2 *53:10 *529:B1 13.7491 
3 *53:10 *485:B1 26.7929 
*END

*D_NET *54 0.00634297
*CONN
*I *485:A2 I *D sky130_fd_sc_hd__a21oi_4
*I *484:B I *D sky130_fd_sc_hd__nand3_1
*I *773:A I *D sky130_fd_sc_hd__buf_4
*I *529:A2 I *D sky130_fd_sc_hd__a21oi_2
*I *666:SUM O *D sky130_fd_sc_hd__ha_4
*CAP
1 *485:A2 0.00032094
2 *484:B 0
3 *773:A 0.000182257
4 *529:A2 0.00027998
5 *666:SUM 0.000460196
6 *54:31 0.000844815
7 *54:25 0.00121545
8 *54:10 0.000972132
9 *485:A2 *659:B 0
10 *529:A2 *628:A2 0.00019335
11 *773:A *343:8 0.000160942
12 *54:10 P[14] 0
13 *54:10 *440:A 0
14 *54:10 *651:B 0.000130777
15 *54:10 *651:CIN 0
16 *54:10 *673:B 0
17 *54:10 *110:12 0.000156381
18 *54:25 *660:B 1.6352e-05
19 *54:31 *489:B1 0.000206718
20 *54:31 *490:A 0.000107496
21 *54:31 *660:A 0.000112361
22 *54:31 *660:B 0.000112361
23 *54:31 *830:A 0.000161243
24 *484:A *54:31 7.27533e-05
25 *484:C *773:A 6.27782e-05
26 *781:A *485:A2 1.07248e-05
27 *41:10 *485:A2 0.000508935
28 *42:6 *54:31 5.40236e-05
29 *53:10 *54:10 0
*RES
1 *666:SUM *54:10 31.7082 
2 *54:10 *529:A2 15.5427 
3 *54:10 *54:25 9.68906 
4 *54:25 *54:31 21.1863 
5 *54:31 *773:A 13.8548 
6 *54:31 *484:B 9.24915 
7 *54:25 *485:A2 24.3014 
*END

*D_NET *55 0.00452509
*CONN
*I *429:A I *D sky130_fd_sc_hd__inv_1
*I *494:A1 I *D sky130_fd_sc_hd__a21o_1
*I *675:COUT O *D sky130_fd_sc_hd__ha_4
*CAP
1 *429:A 0.000416311
2 *494:A1 1.47608e-05
3 *675:COUT 0.00093908
4 *55:10 0.00137015
5 *429:A *446:A 9.0474e-05
6 *429:A *67:20 3.76023e-05
7 *429:A *102:19 0.000546846
8 *494:A1 *486:A1 6.08467e-05
9 *55:10 *495:A1 9.29156e-05
10 *55:10 *628:A2 7.50872e-05
11 *55:10 *675:B 0.000278114
12 *55:10 *102:19 4.33979e-05
13 *494:B1 *55:10 0.000125695
14 *753:A *429:A 0.000254963
15 *40:23 *494:A1 6.08467e-05
16 *44:10 *429:A 0.000118002
*RES
1 *675:COUT *55:10 29.4757 
2 *55:10 *494:A1 14.4725 
3 *55:10 *429:A 28.8354 
*END

*D_NET *56 0.00531578
*CONN
*I *771:A I *D sky130_fd_sc_hd__buf_4
*I *420:B I *D sky130_fd_sc_hd__nand2_8
*I *675:SUM O *D sky130_fd_sc_hd__ha_4
*CAP
1 *771:A 0.000503489
2 *420:B 0.00172771
3 *675:SUM 0
4 *56:6 0.00223119
5 *420:B *490:A 1.05601e-05
6 *771:A *446:A 6.27782e-05
7 *771:A *495:A1 0.00011048
8 *771:A *495:B1 7.84964e-05
9 *771:A *67:20 2.57847e-05
10 *771:A *314:6 0.000452932
11 *485:B1 *420:B 0
12 *485:B1 *771:A 0
13 *781:A *771:A 0.000112361
14 *41:10 *771:A 0
*RES
1 *675:SUM *56:6 13.7491 
2 *56:6 *420:B 25.354 
3 *56:6 *771:A 29.7717 
*END

*D_NET *57 0.0039459
*CONN
*I *486:A2 I *D sky130_fd_sc_hd__o2111ai_2
*I *528:A3 I *D sky130_fd_sc_hd__o31ai_2
*I *482:C I *D sky130_fd_sc_hd__nor3_4
*I *830:A I *D sky130_fd_sc_hd__buf_6
*I *628:A1 I *D sky130_fd_sc_hd__o21ai_0
*I *492:A I *D sky130_fd_sc_hd__nor2_1
*I *420:Y O *D sky130_fd_sc_hd__nand2_8
*CAP
1 *486:A2 0.000106369
2 *528:A3 1.47608e-05
3 *482:C 1.98947e-05
4 *830:A 5.66412e-05
5 *628:A1 4.23587e-05
6 *492:A 0.000191264
7 *420:Y 5.26054e-05
8 *57:60 0.000229823
9 *57:49 0.000229561
10 *57:36 0.000262607
11 *57:19 0.000286331
12 *57:8 0.00038285
13 *482:C *497:B 2.16355e-05
14 *486:A2 *528:A2 0.000156869
15 *486:A2 *66:27 9.12416e-06
16 *486:A2 *67:20 0
17 *486:A2 *400:32 1.92972e-05
18 *492:A *490:A 0
19 *492:A *785:A 0.000143032
20 *528:A3 *410:20 6.08467e-05
21 *57:8 *420:A 3.072e-06
22 *57:19 *489:C1 9.202e-05
23 *57:19 *490:A 0
24 *57:19 *785:A 0.000129609
25 *57:36 *489:C1 0.000204994
26 *57:36 *628:B1 0.000139684
27 *57:49 *489:C1 3.20407e-05
28 *57:49 *628:B1 0.00017666
29 *57:49 *400:32 2.55616e-05
30 *57:60 *528:A2 1.07248e-05
31 *57:60 *628:B1 0.000169677
32 *57:60 *400:32 0.000196939
33 *484:A *830:A 6.53312e-05
34 *494:B1 *486:A2 0
35 *757:A *492:A 0.000130777
36 *758:A *492:A 0
37 *39:38 *482:C 6.08467e-05
38 *42:32 *528:A3 6.08467e-05
39 *54:31 *830:A 0.000161243
*RES
1 *420:Y *57:8 14.4725 
2 *57:8 *492:A 19.3184 
3 *57:8 *57:19 4.11588 
4 *57:19 *628:A1 14.8606 
5 *57:19 *57:36 4.60441 
6 *57:36 *830:A 16.1605 
7 *57:36 *57:49 3.493 
8 *57:49 *482:C 14.4725 
9 *57:49 *57:60 3.90826 
10 *57:60 *528:A3 14.4725 
11 *57:60 *486:A2 16.8269 
*END

*D_NET *58 0.00377134
*CONN
*I *631:A1 I *D sky130_fd_sc_hd__o21bai_1
*I *424:A1 I *D sky130_fd_sc_hd__o21ai_2
*I *421:Y O *D sky130_fd_sc_hd__a211oi_1
*CAP
1 *631:A1 2.00341e-05
2 *424:A1 2.00341e-05
3 *421:Y 0.00122437
4 *58:16 0.00122437
5 *631:A1 *631:A2 6.46815e-05
6 *58:16 P[3] 4.08658e-05
7 *58:16 *424:B1 1.63649e-05
8 *58:16 *59:14 0.000820659
9 *58:16 *359:16 0
10 *58:16 *360:18 0
11 *58:16 *403:14 6.27718e-05
12 *423:A2 *58:16 5.04829e-06
13 *478:A1 *58:16 0
14 *762:A *58:16 0.000272143
*RES
1 *421:Y *58:16 49.6695 
2 *58:16 *424:A1 9.24915 
3 *424:A1 *631:A1 19.2217 
*END

*D_NET *59 0.00306323
*CONN
*I *424:A2 I *D sky130_fd_sc_hd__o21ai_2
*I *786:A I *D sky130_fd_sc_hd__buf_4
*I *422:Y O *D sky130_fd_sc_hd__o21ai_2
*CAP
1 *424:A2 0
2 *786:A 0.000223413
3 *422:Y 0.000564552
4 *59:14 0.000787966
5 *786:A *631:A2 0.000177417
6 *786:A *353:10 0.000211478
7 *59:14 *61:10 1.21461e-06
8 *59:14 *358:14 0.000163997
9 *423:A2 *59:14 7.92757e-06
10 *478:A1 *59:14 0.000104607
11 *58:16 *59:14 0.000820659
*RES
1 *422:Y *59:14 34.5322 
2 *59:14 *786:A 24.5446 
3 *59:14 *424:A2 9.24915 
*END

*D_NET *60 0.000255925
*CONN
*I *424:B1 I *D sky130_fd_sc_hd__o21ai_2
*I *423:Y O *D sky130_fd_sc_hd__a2111oi_4
*CAP
1 *424:B1 8.93565e-05
2 *423:Y 8.93565e-05
3 *423:A2 *424:B1 6.08467e-05
4 *58:16 *424:B1 1.63649e-05
*RES
1 *423:Y *424:B1 20.7649 
*END

*D_NET *61 0.00317023
*CONN
*I *428:A1 I *D sky130_fd_sc_hd__a31oi_4
*I *843:A I *D sky130_fd_sc_hd__buf_4
*I *424:Y O *D sky130_fd_sc_hd__o21ai_2
*CAP
1 *428:A1 0
2 *843:A 0.00027313
3 *424:Y 0.000528818
4 *61:10 0.000801948
5 *843:A *428:B1 0.000168313
6 *843:A *493:A1 0
7 *843:A *65:22 0.00020233
8 *61:10 *426:A1 2.96666e-05
9 *61:10 *481:A1 0
10 *61:10 *481:A2 3.22726e-05
11 *61:10 *631:A2 0.000192759
12 *61:10 *100:10 0
13 *61:10 *344:23 3.10924e-05
14 *61:10 *353:10 4.33609e-05
15 *61:10 *413:24 0
16 *423:A2 *61:10 0
17 *775:A *843:A 0.000413873
18 *775:A *61:10 0.000151494
19 *779:A *843:A 0.000299956
20 *59:14 *61:10 1.21461e-06
*RES
1 *424:Y *61:10 28.2103 
2 *61:10 *843:A 25.7779 
3 *61:10 *428:A1 13.7491 
*END

*D_NET *62 0.000495388
*CONN
*I *427:A I *D sky130_fd_sc_hd__nand2_1
*I *425:Y O *D sky130_fd_sc_hd__o211ai_1
*CAP
1 *427:A 0.000135487
2 *425:Y 0.000135487
3 *427:A *427:B 6.08467e-05
4 *427:A *452:B 0
5 *427:A *100:10 0.000163567
*RES
1 *425:Y *427:A 31.2994 
*END

*D_NET *63 0.000736134
*CONN
*I *427:B I *D sky130_fd_sc_hd__nand2_1
*I *426:Y O *D sky130_fd_sc_hd__a21oi_1
*CAP
1 *427:B 0.000183068
2 *426:Y 0.000183068
3 *427:B *96:12 2.41274e-06
4 *427:B *344:40 0.000255387
5 *427:B *409:10 4.89392e-05
6 *427:A *427:B 6.08467e-05
7 *49:10 *427:B 2.41274e-06
*RES
1 *426:Y *427:B 24.9847 
*END

*D_NET *64 0.000605622
*CONN
*I *428:A3 I *D sky130_fd_sc_hd__a31oi_4
*I *452:A I *D sky130_fd_sc_hd__nand2_2
*I *427:Y O *D sky130_fd_sc_hd__nand2_1
*CAP
1 *428:A3 0
2 *452:A 5.56077e-05
3 *427:Y 5.13605e-05
4 *64:10 0.000106968
5 *452:A *428:A2 0.00015901
6 *64:10 *96:12 0.000114659
7 *64:10 *100:10 0.000118017
*RES
1 *427:Y *64:10 20.4964 
2 *64:10 *452:A 11.0817 
3 *64:10 *428:A3 9.24915 
*END

*D_NET *65 0.00386956
*CONN
*I *445:A_N I *D sky130_fd_sc_hd__nand2b_4
*I *430:A1 I *D sky130_fd_sc_hd__o21ai_4
*I *528:A2 I *D sky130_fd_sc_hd__o31ai_2
*I *428:Y O *D sky130_fd_sc_hd__a31oi_4
*CAP
1 *445:A_N 0
2 *430:A1 0.000121646
3 *528:A2 0.000190225
4 *428:Y 0.000123774
5 *65:22 0.00105204
6 *65:12 0.000863943
7 *430:A1 *420:A 6.55453e-05
8 *430:A1 *430:A2 9.733e-05
9 *430:A1 *314:6 9.81288e-06
10 *528:A2 *486:B1 4.3116e-06
11 *528:A2 *628:B1 0.000143032
12 *528:A2 *66:27 7.66108e-05
13 *528:A2 *409:10 0
14 *65:12 *428:B1 0.000165682
15 *65:22 *446:A 0
16 *65:22 *784:A 3.30938e-05
17 *65:22 *66:10 0.000299785
18 *65:22 *66:27 7.28994e-06
19 *65:22 *409:10 7.72156e-05
20 *486:A2 *528:A2 0.000156869
21 *775:A *65:22 0.000168303
22 *843:A *65:22 0.00020233
23 *44:10 *65:22 0
24 *57:60 *528:A2 1.07248e-05
*RES
1 *428:Y *65:12 22.0503 
2 *65:12 *65:22 26.2359 
3 *65:22 *528:A2 20.1489 
4 *65:22 *430:A1 17.2456 
5 *65:12 *445:A_N 9.24915 
*END

*D_NET *66 0.00400752
*CONN
*I *628:B1 I *D sky130_fd_sc_hd__o21ai_0
*I *486:C1 I *D sky130_fd_sc_hd__o2111ai_2
*I *430:B1 I *D sky130_fd_sc_hd__o21ai_4
*I *429:Y O *D sky130_fd_sc_hd__inv_1
*CAP
1 *628:B1 0.000428088
2 *486:C1 7.14276e-05
3 *430:B1 0
4 *429:Y 0.000230381
5 *66:27 0.000721746
6 *66:10 0.000452612
7 *486:C1 *486:B1 6.50727e-05
8 *486:C1 *489:A2 0.000112302
9 *628:B1 *486:B1 7.77309e-06
10 *628:B1 *489:A2 0.000366099
11 *628:B1 *628:A2 3.82228e-05
12 *628:B1 *629:B 6.2224e-05
13 *66:10 *400:32 8.70662e-06
14 *66:27 *486:A1 1.47978e-05
15 *66:27 *400:32 0.000206584
16 *486:A2 *66:27 9.12416e-06
17 *528:A2 *628:B1 0.000143032
18 *528:A2 *66:27 7.66108e-05
19 *753:A *66:10 8.91253e-05
20 *39:38 *628:B1 1.5714e-05
21 *40:23 *486:C1 3.58044e-05
22 *40:23 *66:27 5.8973e-05
23 *57:36 *628:B1 0.000139684
24 *57:49 *628:B1 0.00017666
25 *57:60 *628:B1 0.000169677
26 *65:22 *66:10 0.000299785
27 *65:22 *66:27 7.28994e-06
*RES
1 *429:Y *66:10 20.3191 
2 *66:10 *430:B1 13.7491 
3 *66:10 *66:27 11.5524 
4 *66:27 *486:C1 11.6605 
5 *66:27 *628:B1 33.2229 
*END

*D_NET *67 0.00370323
*CONN
*I *431:A1 I *D sky130_fd_sc_hd__a21oi_2
*I *430:Y O *D sky130_fd_sc_hd__o21ai_4
*CAP
1 *431:A1 0
2 *430:Y 0.0012308
3 *67:20 0.0012308
4 *67:20 *431:A2 7.07139e-05
5 *67:20 *314:6 1.37189e-05
6 *67:20 *400:32 4.93908e-05
7 *429:A *67:20 3.76023e-05
8 *486:A2 *67:20 0
9 *494:B1 *67:20 8.75372e-05
10 *771:A *67:20 2.57847e-05
11 *780:A *67:20 1.92336e-05
12 *42:32 *67:20 0.000937648
*RES
1 *430:Y *67:20 41.5773 
2 *67:20 *431:A1 9.24915 
*END

*D_NET *68 0.00132193
*CONN
*I *432:A I *D sky130_fd_sc_hd__xnor2_1
*I *431:Y O *D sky130_fd_sc_hd__a21oi_2
*CAP
1 *432:A 0.000171556
2 *431:Y 0.000171556
3 *432:A P[11] 3.87022e-06
4 *432:A *431:A2 9.96342e-05
5 *432:A *432:B 0.000502363
6 *432:A *630:B 0.000247188
7 *754:A *432:A 0.000111658
8 *755:A *432:A 1.4106e-05
*RES
1 *431:Y *432:A 36.8399 
*END

*D_NET *73 0.000956649
*CONN
*I *446:B I *D sky130_fd_sc_hd__xnor2_2
*I *445:Y O *D sky130_fd_sc_hd__nand2b_4
*CAP
1 *446:B 0.000245526
2 *445:Y 0.000245526
3 *446:B *445:B 0.000243875
4 *446:B *102:19 0.000127164
5 *446:B *413:24 7.80506e-05
6 *775:A *446:B 0
7 *44:10 *446:B 1.65078e-05
*RES
1 *445:Y *446:B 36.8048 
*END

*D_NET *76 0.000419974
*CONN
*I *453:A I *D sky130_fd_sc_hd__xnor2_1
*I *452:Y O *D sky130_fd_sc_hd__nand2_2
*CAP
1 *453:A 0.000134105
2 *452:Y 0.000134105
3 *453:A *428:A2 1.21461e-06
4 *453:A *452:B 2.41274e-06
5 *453:A *347:8 3.55179e-05
6 *453:A *347:17 0.000112618
*RES
1 *452:Y *453:A 30.8842 
*END

*D_NET *78 0.00159788
*CONN
*I *811:A I *D sky130_fd_sc_hd__buf_4
*I *523:A I *D sky130_fd_sc_hd__inv_1
*I *457:Y O *D sky130_fd_sc_hd__nand2_2
*CAP
1 *811:A 0
2 *523:A 2.24895e-05
3 *457:Y 0.000233046
4 *78:12 0.000255536
5 *523:A *668:B 5.51924e-05
6 *78:12 *635:CIN 2.70061e-05
7 *457:A *78:12 6.27718e-05
8 *520:B *78:12 0.000114271
9 *521:A *523:A 0.000125836
10 *525:B *78:12 0.000145027
11 *16:39 *78:12 1.02917e-05
12 *16:54 *78:12 0.00054641
*RES
1 *457:Y *78:12 27.1811 
2 *78:12 *523:A 10.6779 
3 *78:12 *811:A 9.24915 
*END

*D_NET *79 0.00275319
*CONN
*I *467:A2 I *D sky130_fd_sc_hd__o311a_1
*I *588:A I *D sky130_fd_sc_hd__xor2_1
*I *458:Y O *D sky130_fd_sc_hd__nand2_4
*CAP
1 *467:A2 0.000208373
2 *588:A 0.000107836
3 *458:Y 0.000507507
4 *79:6 0.000823715
5 *467:A2 *460:B 2.51064e-05
6 *467:A2 *467:A3 0.000370634
7 *467:A2 *467:B1 9.83156e-05
8 *467:A2 *601:B 0.000311769
9 *467:A2 *669:A 1.40593e-05
10 *79:6 *589:B_N 4.72068e-05
11 *79:6 *590:A1 3.00829e-05
12 *79:6 *590:B1 6.46815e-05
13 *79:6 *168:23 5.14737e-05
14 *79:6 *380:18 9.24257e-05
*RES
1 *458:Y *79:6 20.51 
2 *79:6 *588:A 11.5158 
3 *79:6 *467:A2 27.1404 
*END

*D_NET *80 0.00259976
*CONN
*I *810:A I *D sky130_fd_sc_hd__buf_4
*I *467:A3 I *D sky130_fd_sc_hd__o311a_1
*I *459:Y O *D sky130_fd_sc_hd__nand4_1
*CAP
1 *810:A 6.84028e-05
2 *467:A3 0.000339197
3 *459:Y 5.33291e-05
4 *80:6 0.000460929
5 *467:A3 *460:B 6.87335e-05
6 *467:A3 *467:C1 3.12037e-05
7 *467:A3 *647:A 9.49579e-05
8 *467:A3 *669:B 5.04829e-06
9 *467:A3 *187:6 0.000495433
10 *810:A *609:A1 0.000164121
11 *810:A *609:A2 0.000160524
12 *810:A *168:10 8.62625e-06
13 *80:6 *459:D 6.64392e-05
14 *80:6 *187:6 0.00021218
15 *467:A2 *467:A3 0.000370634
*RES
1 *459:Y *80:6 11.6364 
2 *80:6 *467:A3 30.779 
3 *80:6 *810:A 21.3269 
*END

*D_NET *81 0.00213427
*CONN
*I *465:A I *D sky130_fd_sc_hd__nand2_1
*I *601:B I *D sky130_fd_sc_hd__or2_4
*I *460:Y O *D sky130_fd_sc_hd__nand2_1
*CAP
1 *465:A 1.88959e-05
2 *601:B 0.000438093
3 *460:Y 7.85587e-05
4 *81:8 0.000535547
5 *465:A *460:B 1.65872e-05
6 *465:A *85:22 2.58616e-05
7 *601:B *460:B 0
8 *601:B *588:B 6.77457e-05
9 *601:B *590:A2 6.0871e-05
10 *601:B *643:B 0
11 *601:B *669:A 7.45923e-05
12 *601:B *175:8 4.01573e-05
13 *601:B *385:61 0.000219686
14 *81:8 *460:B 0.000208621
15 *81:8 *636:CIN 1.21461e-06
16 *81:8 *85:22 2.43327e-05
17 *460:A *81:8 1.17394e-05
18 *467:A2 *601:B 0.000311769
*RES
1 *460:Y *81:8 12.2151 
2 *81:8 *601:B 31.7082 
3 *81:8 *465:A 9.97254 
*END

*D_NET *82 0.00118725
*CONN
*I *809:A I *D sky130_fd_sc_hd__buf_4
*I *464:A I *D sky130_fd_sc_hd__maj3_1
*I *461:Y O *D sky130_fd_sc_hd__nand2_1
*CAP
1 *809:A 0.000138366
2 *464:A 0.000274715
3 *461:Y 0.000413081
4 *464:A *464:C 4.31539e-05
5 *464:A *389:8 6.50586e-05
6 *809:A *375:10 0.000125695
7 *809:A *387:10 0.000127179
*RES
1 *461:Y *464:A 24.2131 
2 *461:Y *809:A 31.5781 
*END

*D_NET *83 0.000625733
*CONN
*I *808:A I *D sky130_fd_sc_hd__buf_4
*I *464:B I *D sky130_fd_sc_hd__maj3_1
*I *462:Y O *D sky130_fd_sc_hd__nand2_2
*CAP
1 *808:A 1.67539e-05
2 *464:B 8.42963e-05
3 *462:Y 0
4 *83:4 0.00010105
5 *464:B *462:A 5.92342e-05
6 *464:B *294:22 3.40432e-05
7 *464:B *388:16 6.08467e-05
8 *464:B *391:10 0.000127164
9 *464:B *391:18 7.72722e-05
10 *808:A *388:16 6.50727e-05
*RES
1 *462:Y *83:4 9.24915 
2 *83:4 *464:B 22.0503 
3 *83:4 *808:A 9.97254 
*END

*D_NET *84 0.00235279
*CONN
*I *464:C I *D sky130_fd_sc_hd__maj3_1
*I *805:A I *D sky130_fd_sc_hd__buf_4
*I *463:Y O *D sky130_fd_sc_hd__nand2_1
*CAP
1 *464:C 0.000137677
2 *805:A 4.89549e-05
3 *463:Y 0.000300041
4 *84:8 0.000486673
5 *464:C *294:22 0.000196653
6 *464:C *388:16 9.74619e-05
7 *464:C *391:10 0
8 *805:A *294:22 6.46815e-05
9 *84:8 *290:24 6.97748e-05
10 *84:8 *388:16 7.79607e-05
11 *463:A *84:8 0.000508858
12 *464:A *464:C 4.31539e-05
13 *15:12 *84:8 0.000320898
*RES
1 *463:Y *84:8 25.9624 
2 *84:8 *805:A 15.0271 
3 *84:8 *464:C 18.9354 
*END

*D_NET *85 0.00317883
*CONN
*I *465:B I *D sky130_fd_sc_hd__nand2_1
*I *464:X O *D sky130_fd_sc_hd__maj3_1
*CAP
1 *465:B 0
2 *464:X 0.000843704
3 *85:22 0.000843704
4 *85:22 *460:B 2.26957e-05
5 *85:22 *604:C1 0.000109421
6 *85:22 *647:A 6.08467e-05
7 *85:22 *87:10 3.54603e-05
8 *85:22 *294:22 0.000802384
9 *85:22 *295:24 0.00024946
10 *85:22 *375:10 0
11 *85:22 *378:12 5.68225e-06
12 *85:22 *388:16 4.27003e-05
13 *85:22 *389:32 7.2332e-05
14 *460:A *85:22 4.02446e-05
15 *465:A *85:22 2.58616e-05
16 *81:8 *85:22 2.43327e-05
*RES
1 *464:X *85:22 41.0299 
2 *85:22 *465:B 9.24915 
*END

*D_NET *86 0.000714454
*CONN
*I *467:B1 I *D sky130_fd_sc_hd__o311a_1
*I *465:Y O *D sky130_fd_sc_hd__nand2_1
*CAP
1 *467:B1 0.000118277
2 *465:Y 0.000118277
3 *467:B1 *647:A 9.99386e-06
4 *467:B1 *653:A 0.000118166
5 *460:A *467:B1 0.000133259
6 *467:A2 *467:B1 9.83156e-05
7 *13:22 *467:B1 0.000118166
*RES
1 *465:Y *467:B1 32.1716 
*END

*D_NET *87 0.00472842
*CONN
*I *601:A I *D sky130_fd_sc_hd__or2_4
*I *467:C1 I *D sky130_fd_sc_hd__o311a_1
*I *466:Y O *D sky130_fd_sc_hd__nand3_1
*CAP
1 *601:A 0.000408835
2 *467:C1 0.000144039
3 *466:Y 0.00100734
4 *87:10 0.00156021
5 *467:C1 *460:B 8.36586e-06
6 *467:C1 *645:A 7.56859e-06
7 *467:C1 *647:A 4.90295e-05
8 *467:C1 *653:A 0.000105804
9 *601:A *460:B 0.000527667
10 *601:A *590:A1 0.000169093
11 *601:A *590:B1 8.53106e-06
12 *601:A *590:C1 0
13 *601:A *653:A 3.17869e-05
14 *601:A *175:8 6.31809e-05
15 *601:A *184:12 6.50586e-05
16 *87:10 *603:B1 2.16355e-05
17 *87:10 *604:C1 1.96344e-05
18 *87:10 *294:22 0.000100828
19 *87:10 *378:21 0.000159032
20 *87:10 *379:18 7.66391e-06
21 *87:10 *394:16 0.000107496
22 *467:A3 *467:C1 3.12037e-05
23 *824:A *87:10 2.16355e-05
24 *12:26 *601:A 6.73186e-05
25 *85:22 *87:10 3.54603e-05
*RES
1 *466:Y *87:10 29.0704 
2 *87:10 *467:C1 18.4879 
3 *87:10 *601:A 28.2103 
*END

*D_NET *88 0.00208014
*CONN
*I *474:D I *D sky130_fd_sc_hd__nor4_1
*I *600:S I *D sky130_fd_sc_hd__mux2_4
*I *476:A1 I *D sky130_fd_sc_hd__a211oi_1
*I *468:Y O *D sky130_fd_sc_hd__nand2_2
*CAP
1 *474:D 2.91336e-05
2 *600:S 0.000214795
3 *476:A1 0.000105577
4 *468:Y 0.000162189
5 *88:10 0.000453427
6 *474:D *476:B1 7.97944e-05
7 *474:D *652:A 1.00981e-05
8 *474:D *184:12 0.000222149
9 *476:A1 *184:12 5.9545e-05
10 *600:S *468:B 0.000100087
11 *600:S *476:A2 0.000255403
12 *600:S *598:B1 0.000116652
13 *600:S *599:A2 3.66868e-05
14 *600:S *599:B1 1.22289e-05
15 *600:S *600:A1 0.000109951
16 *88:10 *468:B 6.12656e-05
17 *88:10 *476:A2 3.31733e-05
18 *88:10 *476:C1 0
19 *88:10 *652:A 1.79807e-05
20 *5:16 *88:10 0
*RES
1 *468:Y *88:10 17.9655 
2 *88:10 *476:A1 15.0271 
3 *88:10 *600:S 22.6404 
4 *476:A1 *474:D 20.8855 
*END

*D_NET *89 0.00177997
*CONN
*I *807:A I *D sky130_fd_sc_hd__buf_4
*I *473:A I *D sky130_fd_sc_hd__maj3_1
*I *469:Y O *D sky130_fd_sc_hd__nand2_1
*CAP
1 *807:A 0.000102955
2 *473:A 2.18202e-05
3 *469:Y 0.000336634
4 *89:6 0.000461409
5 *473:A *476:A2 6.27782e-05
6 *473:A *92:27 1.03403e-05
7 *807:A *600:A0 0.000204126
8 *807:A *377:10 3.26247e-05
9 *807:A *377:12 4.19821e-05
10 *89:6 *473:B 0.00015607
11 *89:6 *476:A2 0.000237216
12 *89:6 *92:23 7.92757e-06
13 *89:6 *92:27 1.00901e-05
14 *5:16 *807:A 8.36429e-06
15 *9:14 *89:6 4.31668e-05
16 *71:13 *89:6 4.24629e-05
*RES
1 *469:Y *89:6 18.2916 
2 *89:6 *473:A 9.97254 
3 *89:6 *807:A 22.1574 
*END

*D_NET *90 0.00457516
*CONN
*I *473:B I *D sky130_fd_sc_hd__maj3_1
*I *475:B I *D sky130_fd_sc_hd__and3_1
*I *597:A I *D sky130_fd_sc_hd__xnor2_1
*I *474:B I *D sky130_fd_sc_hd__nor4_1
*I *598:A1 I *D sky130_fd_sc_hd__a21oi_1
*I *470:Y O *D sky130_fd_sc_hd__nand2_2
*CAP
1 *473:B 4.47007e-05
2 *475:B 0
3 *597:A 0.00018496
4 *474:B 6.65241e-05
5 *598:A1 8.62638e-05
6 *470:Y 0
7 *90:32 0.000434644
8 *90:19 0.000375041
9 *90:17 0.000310939
10 *90:4 0.000293669
11 *473:B *92:23 1.65872e-05
12 *473:B *92:27 4.24488e-05
13 *474:B *474:C 0.000246678
14 *597:A *475:A 4.61271e-05
15 *597:A *475:C 1.41976e-05
16 *597:A *597:B 0.00025718
17 *598:A1 *470:B 7.64515e-05
18 *598:A1 *598:A2 0.000171273
19 *598:A1 *663:A 0.000472818
20 *598:A1 *226:16 5.04829e-06
21 *598:A1 *265:18 6.12686e-06
22 *90:17 *470:B 4.66492e-05
23 *90:17 *663:A 6.08467e-05
24 *90:17 *92:23 5.37077e-05
25 *90:17 *384:43 0.00011101
26 *90:19 *474:C 8.36586e-06
27 *90:19 *92:23 0.000101585
28 *90:32 *475:A 7.28513e-06
29 *90:32 *475:C 6.94062e-07
30 *90:32 *95:8 6.27782e-05
31 *812:A *90:17 7.50722e-05
32 *5:16 *474:B 0.000246678
33 *5:16 *90:17 0.000391156
34 *5:16 *90:19 0.000101585
35 *89:6 *473:B 0.00015607
*RES
1 *470:Y *90:4 9.24915 
2 *90:4 *598:A1 14.4094 
3 *90:4 *90:17 12.8689 
4 *90:17 *90:19 2.24725 
5 *90:19 *474:B 18.0727 
6 *90:19 *90:32 7.99641 
7 *90:32 *597:A 14.6987 
8 *90:32 *475:B 9.24915 
9 *90:17 *473:B 15.5817 
*END

*D_NET *92 0.00446192
*CONN
*I *473:C I *D sky130_fd_sc_hd__maj3_1
*I *598:A2 I *D sky130_fd_sc_hd__a21oi_1
*I *475:C I *D sky130_fd_sc_hd__and3_1
*I *597:B I *D sky130_fd_sc_hd__xnor2_1
*I *474:C I *D sky130_fd_sc_hd__nor4_1
*I *472:Y O *D sky130_fd_sc_hd__nand2_2
*CAP
1 *473:C 0
2 *598:A2 0.00027045
3 *475:C 5.10573e-05
4 *597:B 0.000134054
5 *474:C 0.000194612
6 *472:Y 0
7 *92:29 0.000289572
8 *92:27 0.000472267
9 *92:23 0.000230867
10 *92:6 0.000328122
11 *474:C *443:A 0.000113968
12 *474:C *384:43 0.000309556
13 *475:C *475:A 2.37166e-05
14 *475:C *476:A2 1.08881e-05
15 *475:C *476:C1 6.4937e-05
16 *597:B *476:A2 6.64671e-06
17 *597:B *599:A2 6.27782e-05
18 *598:A2 *598:B1 4.99766e-05
19 *598:A2 *600:A0 0.000155816
20 *598:A2 *226:16 0
21 *598:A2 *265:18 8.52652e-05
22 *598:A2 *396:10 0
23 *92:23 *384:43 0.000163478
24 *92:27 *476:A2 3.99086e-06
25 *92:27 *377:38 0.000203756
26 *92:29 *476:A2 3.4149e-07
27 *92:29 *476:C1 2.29386e-05
28 *92:29 *599:A2 6.87335e-05
29 *92:29 *600:A0 0.000178277
30 *473:A *92:27 1.03403e-05
31 *473:B *92:23 1.65872e-05
32 *473:B *92:27 4.24488e-05
33 *474:B *474:C 0.000246678
34 *597:A *475:C 1.41976e-05
35 *597:A *597:B 0.00025718
36 *598:A1 *598:A2 0.000171273
37 *5:16 *474:C 2.47808e-05
38 *89:6 *92:23 7.92757e-06
39 *89:6 *92:27 1.00901e-05
40 *90:17 *92:23 5.37077e-05
41 *90:19 *474:C 8.36586e-06
42 *90:19 *92:23 0.000101585
43 *90:32 *475:C 6.94062e-07
*RES
1 *472:Y *92:6 13.7491 
2 *92:6 *474:C 20.5964 
3 *92:6 *92:23 8.85575 
4 *92:23 *92:27 7.44181 
5 *92:27 *92:29 3.70063 
6 *92:29 *597:B 17.8024 
7 *92:29 *475:C 15.2235 
8 *92:27 *598:A2 21.9815 
9 *92:23 *473:C 9.24915 
*END

*D_NET *93 0.00178335
*CONN
*I *476:A2 I *D sky130_fd_sc_hd__a211oi_1
*I *473:X O *D sky130_fd_sc_hd__maj3_1
*CAP
1 *476:A2 0.000531691
2 *473:X 0.000531691
3 *476:A2 *476:C1 0
4 *476:A2 *599:A2 0.000104682
5 *476:A2 *377:38 4.84662e-06
6 *473:A *476:A2 6.27782e-05
7 *475:C *476:A2 1.08881e-05
8 *597:B *476:A2 6.64671e-06
9 *600:S *476:A2 0.000255403
10 *88:10 *476:A2 3.31733e-05
11 *89:6 *476:A2 0.000237216
12 *92:27 *476:A2 3.99086e-06
13 *92:29 *476:A2 3.4149e-07
*RES
1 *473:X *476:A2 38.3671 
*END

*D_NET *94 0.000229226
*CONN
*I *476:B1 I *D sky130_fd_sc_hd__a211oi_1
*I *474:Y O *D sky130_fd_sc_hd__nor4_1
*CAP
1 *476:B1 4.00806e-05
2 *474:Y 4.00806e-05
3 *476:B1 *652:A 6.92705e-05
4 *474:D *476:B1 7.97944e-05
*RES
1 *474:Y *476:B1 20.3309 
*END

*D_NET *95 0.00224353
*CONN
*I *600:A0 I *D sky130_fd_sc_hd__mux2_4
*I *476:C1 I *D sky130_fd_sc_hd__a211oi_1
*I *475:X O *D sky130_fd_sc_hd__and3_1
*CAP
1 *600:A0 0.000261937
2 *476:C1 0.000148233
3 *475:X 1.84239e-05
4 *95:8 0.000428594
5 *476:C1 *474:A 3.47902e-05
6 *476:C1 *377:12 2.89271e-05
7 *600:A0 *600:A1 6.08467e-05
8 *600:A0 *664:B 0.000413252
9 *600:A0 *183:8 0.000129082
10 *600:A0 *377:12 1.93511e-05
11 *600:A0 *396:10 1.77537e-06
12 *95:8 *475:A 9.44631e-06
13 *475:C *476:C1 6.4937e-05
14 *476:A2 *476:C1 0
15 *598:A2 *600:A0 0.000155816
16 *807:A *600:A0 0.000204126
17 *5:16 *600:A0 0
18 *88:10 *476:C1 0
19 *90:32 *95:8 6.27782e-05
20 *92:29 *476:C1 2.29386e-05
21 *92:29 *600:A0 0.000178277
*RES
1 *475:X *95:8 14.4725 
2 *95:8 *476:C1 18.0727 
3 *95:8 *600:A0 24.7545 
*END

*D_NET *96 0.00389982
*CONN
*I *493:A2 I *D sky130_fd_sc_hd__o21ai_2
*I *482:A I *D sky130_fd_sc_hd__nor3_4
*I *477:Y O *D sky130_fd_sc_hd__nand2_2
*CAP
1 *493:A2 2.31637e-05
2 *482:A 0.000603889
3 *477:Y 0.000478048
4 *96:12 0.0011051
5 *482:A *488:B 8.15672e-05
6 *482:A *493:A1 3.20069e-06
7 *482:A *634:B 6.72595e-05
8 *482:A *831:A 4.25417e-05
9 *482:A *840:A 0.000134809
10 *482:A *204:14 0.000234999
11 *482:A *409:10 1.88023e-05
12 *482:A *410:20 0.00053637
13 *96:12 *493:A1 7.58739e-05
14 *96:12 *839:A 1.2819e-05
15 *96:12 *840:A 9.60334e-05
16 *96:12 *100:10 9.3601e-05
17 *96:12 *100:16 7.40371e-05
18 *96:12 *344:40 3.00835e-06
19 *96:12 *347:8 0
20 *427:B *96:12 2.41274e-06
21 *484:C *482:A 3.25494e-05
22 *777:A *493:A2 6.50727e-05
23 *64:10 *96:12 0.000114659
*RES
1 *477:Y *96:12 27.6798 
2 *96:12 *482:A 34.756 
3 *96:12 *493:A2 14.4725 
*END

*D_NET *97 0.000623596
*CONN
*I *480:A1 I *D sky130_fd_sc_hd__o21bai_1
*I *478:Y O *D sky130_fd_sc_hd__a211oi_2
*CAP
1 *480:A1 0.000116072
2 *478:Y 0.000116072
3 *480:A1 *478:C1 0.000386691
4 *480:A1 *480:A2 4.76161e-06
*RES
1 *478:Y *480:A1 22.5734 
*END

*D_NET *98 0.000398432
*CONN
*I *480:A2 I *D sky130_fd_sc_hd__o21bai_1
*I *479:Y O *D sky130_fd_sc_hd__o21ai_1
*CAP
1 *480:A2 9.13344e-05
2 *479:Y 9.13344e-05
3 *480:A2 *479:A2 3.37538e-05
4 *480:A2 *480:B1_N 6.27718e-05
5 *480:A2 *481:A1 0.000109427
6 *480:A1 *480:A2 4.76161e-06
7 *36:14 *480:A2 5.04829e-06
*RES
1 *479:Y *480:A2 21.4642 
*END

*D_NET *99 0.00137447
*CONN
*I *481:A1 I *D sky130_fd_sc_hd__a21oi_2
*I *480:Y O *D sky130_fd_sc_hd__o21bai_1
*CAP
1 *481:A1 0.000337019
2 *480:Y 0.000337019
3 *481:A1 *425:A2 0
4 *481:A1 *480:B1_N 0.000131452
5 *481:A1 *481:A2 0.000143032
6 *481:A1 *631:B1_N 0.000121494
7 *481:A1 *100:10 1.87469e-05
8 *481:A1 *353:10 0.000176284
9 *480:A2 *481:A1 0.000109427
10 *832:A *481:A1 0
11 *61:10 *481:A1 0
*RES
1 *480:Y *481:A1 37.6676 
*END

*D_NET *100 0.00380562
*CONN
*I *842:A I *D sky130_fd_sc_hd__buf_4
*I *841:A I *D sky130_fd_sc_hd__buf_4
*I *840:A I *D sky130_fd_sc_hd__buf_4
*I *481:Y O *D sky130_fd_sc_hd__a21oi_2
*CAP
1 *842:A 0
2 *841:A 0
3 *840:A 0.000527202
4 *481:Y 0.000382093
5 *100:16 0.000626381
6 *100:10 0.000481272
7 *840:A *347:8 0.000104733
8 *840:A *410:20 0.000213449
9 *100:10 *452:B 0
10 *100:10 *839:A 0.000384796
11 *100:10 *413:24 0.000113968
12 *100:16 *493:A1 5.04829e-06
13 *100:16 *839:A 0.000171217
14 *427:A *100:10 0.000163567
15 *481:A1 *100:10 1.87469e-05
16 *482:A *840:A 0.000134809
17 *767:A *840:A 7.07939e-05
18 *832:A *100:10 2.58518e-05
19 *61:10 *100:10 0
20 *64:10 *100:10 0.000118017
21 *96:12 *840:A 9.60334e-05
22 *96:12 *100:10 9.3601e-05
23 *96:12 *100:16 7.40371e-05
*RES
1 *481:Y *100:10 26.4099 
2 *100:10 *100:16 8.30115 
3 *100:16 *840:A 34.6851 
4 *100:16 *841:A 9.24915 
5 *100:10 *842:A 13.7491 
*END

*D_NET *101 0.00132728
*CONN
*I *489:A1 I *D sky130_fd_sc_hd__o211a_1
*I *629:B I *D sky130_fd_sc_hd__nor2_1
*I *482:Y O *D sky130_fd_sc_hd__nor3_4
*CAP
1 *489:A1 0
2 *629:B 0.000179298
3 *482:Y 0.000199619
4 *101:10 0.000378916
5 *629:B *488:A 1.53822e-05
6 *629:B *489:A2 1.03594e-05
7 *629:B *489:B1 5.94254e-05
8 *629:B *629:A 7.94909e-06
9 *629:B *204:14 1.36606e-05
10 *101:10 *486:B1 6.93171e-05
11 *101:10 *488:A 7.444e-06
12 *101:10 *489:A2 0.000118002
13 *101:10 *497:B 0.000205681
14 *628:B1 *629:B 6.2224e-05
*RES
1 *482:Y *101:10 18.3836 
2 *101:10 *629:B 19.0935 
3 *101:10 *489:A1 13.7491 
*END

*D_NET *102 0.00593093
*CONN
*I *486:A1 I *D sky130_fd_sc_hd__o2111ai_2
*I *628:A2 I *D sky130_fd_sc_hd__o21ai_0
*I *493:B1 I *D sky130_fd_sc_hd__o21ai_2
*I *483:Y O *D sky130_fd_sc_hd__a21oi_2
*CAP
1 *486:A1 0.000186545
2 *628:A2 0.000506906
3 *493:B1 0.000485013
4 *483:Y 4.93685e-05
5 *102:19 0.00106867
6 *102:6 0.000909596
7 *493:B1 *483:A2 9.38559e-05
8 *628:A2 *529:A1 0.000537254
9 *628:A2 *629:A 4.23338e-05
10 *102:19 *445:B 5.03432e-05
11 *102:19 *495:B1 4.50197e-05
12 *429:A *102:19 0.000546846
13 *446:B *102:19 0.000127164
14 *485:B1 *628:A2 0.000124954
15 *494:A1 *486:A1 6.08467e-05
16 *494:B1 *628:A2 5.18861e-05
17 *529:A2 *628:A2 0.00019335
18 *628:B1 *628:A2 3.82228e-05
19 *775:A *493:B1 4.81015e-05
20 *777:A *493:B1 6.16063e-05
21 *40:12 *628:A2 0.00035155
22 *40:12 *102:19 5.41227e-05
23 *40:23 *486:A1 9.98207e-05
24 *44:10 *102:19 6.12721e-05
25 *53:10 *628:A2 3.00174e-06
26 *55:10 *628:A2 7.50872e-05
27 *55:10 *102:19 4.33979e-05
28 *66:27 *486:A1 1.47978e-05
*RES
1 *483:Y *102:6 9.97254 
2 *102:6 *493:B1 17.2065 
3 *102:6 *102:19 17.9591 
4 *102:19 *628:A2 32.4248 
5 *102:19 *486:A1 18.403 
*END

*D_NET *103 0.00239801
*CONN
*I *486:B1 I *D sky130_fd_sc_hd__o2111ai_2
*I *488:A I *D sky130_fd_sc_hd__nand3_1
*I *484:Y O *D sky130_fd_sc_hd__nand3_1
*CAP
1 *486:B1 0.000313915
2 *488:A 0.000129246
3 *484:Y 4.51842e-05
4 *103:6 0.000488345
5 *486:B1 *488:B 8.88391e-05
6 *486:B1 *489:A2 0.000339668
7 *486:B1 *409:10 0.000226845
8 *488:A *488:B 0.000259271
9 *488:A *489:B1 0.000113309
10 *484:A *486:B1 9.81698e-05
11 *484:A *103:6 6.08467e-05
12 *486:C1 *486:B1 6.50727e-05
13 *528:A2 *486:B1 4.3116e-06
14 *628:B1 *486:B1 7.77309e-06
15 *629:B *488:A 1.53822e-05
16 *40:23 *486:B1 6.50727e-05
17 *101:10 *486:B1 6.93171e-05
18 *101:10 *488:A 7.444e-06
*RES
1 *484:Y *103:6 9.97254 
2 *103:6 *488:A 22.9879 
3 *103:6 *486:B1 29.1418 
*END

*D_NET *104 0.00400516
*CONN
*I *486:D1 I *D sky130_fd_sc_hd__o2111ai_2
*I *488:B I *D sky130_fd_sc_hd__nand3_1
*I *485:Y O *D sky130_fd_sc_hd__a21oi_4
*CAP
1 *486:D1 4.18376e-05
2 *488:B 0.000413509
3 *485:Y 0.000316127
4 *104:10 0.000771473
5 *486:D1 *489:A2 2.16355e-05
6 *488:B *490:A 0.000148136
7 *488:B *204:14 2.41726e-05
8 *488:B *409:10 0.000231926
9 *488:B *410:20 0.000181333
10 *104:10 *495:A1 0.000364437
11 *104:10 *409:10 5.05252e-05
12 *104:10 *410:20 4.55115e-05
13 *482:A *488:B 8.15672e-05
14 *484:C *488:B 4.73301e-05
15 *486:B1 *488:B 8.88391e-05
16 *488:A *488:B 0.000259271
17 *40:23 *486:D1 0.000107496
18 *40:23 *104:10 0.00081003
*RES
1 *485:Y *104:10 24.9023 
2 *104:10 *488:B 28.112 
3 *104:10 *486:D1 15.0271 
*END

*D_NET *105 0.00186417
*CONN
*I *489:A2 I *D sky130_fd_sc_hd__o211a_1
*I *486:Y O *D sky130_fd_sc_hd__o2111ai_2
*CAP
1 *489:A2 0.00043394
2 *486:Y 0.00043394
3 *486:B1 *489:A2 0.000339668
4 *486:C1 *489:A2 0.000112302
5 *486:D1 *489:A2 2.16355e-05
6 *628:B1 *489:A2 0.000366099
7 *629:B *489:A2 1.03594e-05
8 *39:38 *489:A2 2.27135e-05
9 *40:23 *489:A2 5.51483e-06
10 *101:10 *489:A2 0.000118002
*RES
1 *486:Y *489:A2 40.2593 
*END

*D_NET *106 0.000559807
*CONN
*I *488:C I *D sky130_fd_sc_hd__nand3_1
*I *487:Y O *D sky130_fd_sc_hd__nand3_1
*CAP
1 *488:C 0.000221941
2 *487:Y 0.000221941
3 *488:C *204:14 6.27782e-05
4 *487:C *488:C 5.31465e-05
*RES
1 *487:Y *488:C 23.6826 
*END

*D_NET *107 0.000835566
*CONN
*I *489:B1 I *D sky130_fd_sc_hd__o211a_1
*I *488:Y O *D sky130_fd_sc_hd__nand3_1
*CAP
1 *489:B1 0.000183932
2 *488:Y 0.000183932
3 *489:B1 *204:14 3.86207e-06
4 *484:A *489:B1 8.43875e-05
5 *488:A *489:B1 0.000113309
6 *629:B *489:B1 5.94254e-05
7 *54:31 *489:B1 0.000206718
*RES
1 *488:Y *489:B1 33.4349 
*END

*D_NET *108 0.00119494
*CONN
*I *490:A I *D sky130_fd_sc_hd__xor2_1
*I *489:X O *D sky130_fd_sc_hd__o211a_1
*CAP
1 *490:A 0.000365176
2 *489:X 0.000365176
3 *490:A *204:14 8.44848e-05
4 *490:A *339:16 0.000101312
5 *420:B *490:A 1.05601e-05
6 *488:B *490:A 0.000148136
7 *492:A *490:A 0
8 *758:A *490:A 1.2601e-05
9 *54:31 *490:A 0.000107496
10 *57:19 *490:A 0
*RES
1 *489:X *490:A 38.0828 
*END

*D_NET *109 0.00100837
*CONN
*I *528:A1 I *D sky130_fd_sc_hd__o31ai_2
*I *769:A I *D sky130_fd_sc_hd__buf_4
*I *491:Y O *D sky130_fd_sc_hd__nand2_1
*CAP
1 *528:A1 7.82218e-05
2 *769:A 0
3 *491:Y 0.00011924
4 *109:8 0.000197462
5 *528:A1 *339:16 2.20702e-05
6 *528:A1 *410:20 0.000154145
7 *109:8 *431:A2 0
8 *109:8 *339:16 7.73257e-05
9 *780:A *109:8 2.65831e-05
10 *42:32 *528:A1 0.000300565
11 *42:32 *109:8 3.27589e-05
*RES
1 *491:Y *109:8 12.625 
2 *109:8 *769:A 9.24915 
3 *109:8 *528:A1 12.7456 
*END

*D_NET *110 0.0029617
*CONN
*I *496:A1 I *D sky130_fd_sc_hd__a21boi_2
*I *492:Y O *D sky130_fd_sc_hd__nor2_1
*CAP
1 *496:A1 0
2 *492:Y 0.000743269
3 *110:12 0.000743269
4 *110:12 P[14] 0.000267394
5 *110:12 *651:B 5.88662e-05
6 *110:12 *339:16 7.34948e-06
7 *485:B1 *110:12 0.000348203
8 *53:10 *110:12 0.000636963
9 *54:10 *110:12 0.000156381
*RES
1 *492:Y *110:12 43.9333 
2 *110:12 *496:A1 9.24915 
*END

*D_NET *111 0.00247363
*CONN
*I *839:A I *D sky130_fd_sc_hd__buf_4
*I *831:A I *D sky130_fd_sc_hd__buf_4
*I *493:Y O *D sky130_fd_sc_hd__o21ai_2
*CAP
1 *839:A 0.000225477
2 *831:A 0.000163233
3 *493:Y 0
4 *111:6 0.00038871
5 *831:A *493:A1 5.41377e-05
6 *831:A *409:10 0.000195154
7 *839:A *493:A1 0.000116454
8 *839:A *409:10 0.000694632
9 *482:A *831:A 4.25417e-05
10 *753:A *831:A 2.44599e-05
11 *96:12 *839:A 1.2819e-05
12 *100:10 *839:A 0.000384796
13 *100:16 *839:A 0.000171217
*RES
1 *493:Y *111:6 13.7491 
2 *111:6 *831:A 19.0989 
3 *111:6 *839:A 26.3777 
*END

*D_NET *112 0.00180239
*CONN
*I *495:A1 I *D sky130_fd_sc_hd__a21oi_2
*I *494:X O *D sky130_fd_sc_hd__a21o_1
*CAP
1 *495:A1 0.000465592
2 *494:X 0.000465592
3 *495:A1 *495:B1 0.000243633
4 *495:A1 *113:6 5.97411e-05
5 *771:A *495:A1 0.00011048
6 *55:10 *495:A1 9.29156e-05
7 *104:10 *495:A1 0.000364437
*RES
1 *494:X *495:A1 39.3692 
*END

*D_NET *113 0.00113934
*CONN
*I *528:B1 I *D sky130_fd_sc_hd__o31ai_2
*I *496:B1_N I *D sky130_fd_sc_hd__a21boi_2
*I *495:Y O *D sky130_fd_sc_hd__a21oi_2
*CAP
1 *528:B1 2.26631e-05
2 *496:B1_N 9.60792e-05
3 *495:Y 0.00014013
4 *113:6 0.000258872
5 *496:B1_N *496:A2 6.36477e-05
6 *496:B1_N *410:20 0.000133679
7 *528:B1 *529:A1 3.34618e-05
8 *113:6 *529:A1 0.000154145
9 *495:A1 *113:6 5.97411e-05
10 *42:21 *496:B1_N 0.000130548
11 *42:32 *528:B1 3.60363e-05
12 *42:32 *113:6 1.03403e-05
*RES
1 *495:Y *113:6 12.7456 
2 *113:6 *496:B1_N 21.635 
3 *113:6 *528:B1 10.2378 
*END

*D_NET *114 0.00268779
*CONN
*I *497:B I *D sky130_fd_sc_hd__xnor2_1
*I *496:Y O *D sky130_fd_sc_hd__a21boi_2
*CAP
1 *497:B 0.0007834
2 *496:Y 0.0007834
3 *497:B *482:B 2.20192e-05
4 *497:B *496:A2 1.58551e-05
5 *497:B *350:8 6.49834e-05
6 *497:B *400:32 0.000259284
7 *431:B1 *497:B 0.000235865
8 *482:C *497:B 2.16355e-05
9 *756:A *497:B 2.60631e-05
10 *780:A *497:B 0.000109421
11 *39:38 *497:B 0.000160178
12 *101:10 *497:B 0.000205681
*RES
1 *496:Y *497:B 36.6555 
*END

*D_NET *116 0.0004578
*CONN
*I *512:A2 I *D sky130_fd_sc_hd__a21oi_2
*I *511:X O *D sky130_fd_sc_hd__a21o_1
*CAP
1 *512:A2 0.000195967
2 *511:X 0.000195967
3 *512:A2 *511:B1 0
4 *512:A2 *513:B 0
5 *512:A2 *516:A 6.58661e-05
6 *512:A2 *359:16 0
*RES
1 *511:X *512:A2 33.0676 
*END

*D_NET *117 0.000781984
*CONN
*I *513:A I *D sky130_fd_sc_hd__xnor2_1
*I *512:Y O *D sky130_fd_sc_hd__a21oi_2
*CAP
1 *513:A 0.000271836
2 *512:Y 0.000271836
3 *513:A *512:A1 1.61631e-05
4 *763:A *513:A 0.000222149
*RES
1 *512:Y *513:A 25.9252 
*END

*D_NET *118 0.0013102
*CONN
*I *515:A2 I *D sky130_fd_sc_hd__a21oi_1
*I *514:X O *D sky130_fd_sc_hd__a21o_1
*CAP
1 *515:A2 0.000570402
2 *514:X 0.000570402
3 *515:A2 *511:B1 5.08975e-05
4 *515:A2 *359:16 4.3116e-06
5 *422:A1 *515:A2 8.39059e-05
6 *422:A2 *515:A2 2.02114e-05
7 *762:A *515:A2 1.00662e-05
*RES
1 *514:X *515:A2 36.9848 
*END

*D_NET *119 0.000420341
*CONN
*I *516:B I *D sky130_fd_sc_hd__xnor2_2
*I *515:Y O *D sky130_fd_sc_hd__a21oi_1
*CAP
1 *516:B 0.00012707
2 *515:Y 0.00012707
3 *516:B *511:B1 5.04829e-06
4 *516:B *516:A 0
5 *516:B *359:16 0.000153225
6 *516:B *360:18 7.92757e-06
*RES
1 *515:Y *516:B 30.8842 
*END

*D_NET *121 0.00197667
*CONN
*I *529:A1 I *D sky130_fd_sc_hd__a21oi_2
*I *528:Y O *D sky130_fd_sc_hd__o31ai_2
*CAP
1 *529:A1 0.000492133
2 *528:Y 0.000492133
3 *529:A1 *400:32 0.00013832
4 *494:B1 *529:A1 0.000108401
5 *528:B1 *529:A1 3.34618e-05
6 *628:A2 *529:A1 0.000537254
7 *42:21 *529:A1 1.29591e-05
8 *42:32 *529:A1 3.99086e-06
9 *53:10 *529:A1 3.87022e-06
10 *113:6 *529:A1 0.000154145
*RES
1 *528:Y *529:A1 40.9041 
*END

*D_NET *122 0.00138138
*CONN
*I *530:B I *D sky130_fd_sc_hd__xnor2_1
*I *529:Y O *D sky130_fd_sc_hd__a21oi_2
*CAP
1 *530:B 0.000325668
2 *529:Y 0.000325668
3 *530:B *489:C1 0
4 *530:B *490:B 0.000336722
5 *530:B *530:A 6.59115e-05
6 *530:B *651:A 6.00052e-05
7 *530:B *785:A 0.000267404
8 *53:10 *530:B 0
*RES
1 *529:Y *530:B 38.2278 
*END

*D_NET *123 0.00205461
*CONN
*I *541:A I *D sky130_fd_sc_hd__nor2_1
*I *544:A I *D sky130_fd_sc_hd__nand3_1
*I *542:A1 I *D sky130_fd_sc_hd__a21oi_2
*I *532:Y O *D sky130_fd_sc_hd__nand2_1
*CAP
1 *541:A 0
2 *544:A 0.000226191
3 *542:A1 0
4 *532:Y 0.000138119
5 *123:23 0.000284385
6 *123:12 0.000196313
7 *544:A P[0] 6.08467e-05
8 *544:A *532:B 0
9 *544:A *541:B 0.000118
10 *544:A *542:B1 1.65872e-05
11 *544:A *544:C 0.000111045
12 *544:A *389:114 0.000129436
13 *544:A *397:46 1.89545e-06
14 *544:A *399:67 8.51601e-06
15 *123:12 P[0] 0.00015901
16 *123:12 *542:B1 7.50803e-05
17 *123:12 *545:A1 0.0001403
18 *123:12 *126:29 0.0001403
19 *123:12 *376:10 3.31745e-05
20 *123:23 P[0] 5.34588e-05
21 *123:23 *542:B1 0.000161956
*RES
1 *532:Y *123:12 23.8535 
2 *123:12 *542:A1 9.24915 
3 *123:12 *123:23 2.99004 
4 *123:23 *544:A 24.7283 
5 *123:23 *541:A 9.24915 
*END

*D_NET *124 0.00149286
*CONN
*I *806:A I *D sky130_fd_sc_hd__buf_4
*I *545:A1 I *D sky130_fd_sc_hd__o311ai_1
*I *533:Y O *D sky130_fd_sc_hd__nand2_1
*CAP
1 *806:A 0
2 *545:A1 0.000158793
3 *533:Y 0.000108453
4 *124:12 0.000267247
5 *545:A1 *532:A 0.000133098
6 *545:A1 *537:A 3.67708e-05
7 *545:A1 *540:B1 1.07248e-05
8 *545:A1 *125:36 0.000326021
9 *545:A1 *126:29 3.81224e-05
10 *124:12 *539:A2 0.00011935
11 *124:12 *125:36 0.000115753
12 *124:12 *376:10 3.82228e-05
13 *123:12 *545:A1 0.0001403
*RES
1 *533:Y *124:12 21.7744 
2 *124:12 *545:A1 25.0642 
3 *124:12 *806:A 9.24915 
*END

*D_NET *125 0.00378491
*CONN
*I *545:A2 I *D sky130_fd_sc_hd__o311ai_1
*I *537:A I *D sky130_fd_sc_hd__nand2_1
*I *536:A I *D sky130_fd_sc_hd__xor2_1
*I *543:A1 I *D sky130_fd_sc_hd__o21ai_0
*I *534:Y O *D sky130_fd_sc_hd__nand2_1
*CAP
1 *545:A2 1.22822e-05
2 *537:A 0.00013687
3 *536:A 0
4 *543:A1 0
5 *534:Y 0.000410535
6 *125:36 0.000509053
7 *125:25 0.000488481
8 *125:18 0.000539114
9 *537:A *539:A2 8.01741e-05
10 *537:A *540:B1 3.14345e-05
11 *537:A *556:B 5.04829e-06
12 *537:A *126:10 1.32509e-05
13 *537:A *387:81 2.58616e-05
14 *537:A *388:109 1.5714e-05
15 *545:A2 *532:A 6.50727e-05
16 *545:A2 *545:A3 3.60314e-05
17 *125:18 *541:B 0.000306802
18 *125:18 *543:A2 1.02267e-05
19 *125:18 *544:C 9.01008e-05
20 *125:18 *234:14 1.07248e-05
21 *125:18 *307:22 0.000149261
22 *125:25 *543:A2 8.20996e-05
23 *125:25 *544:C 9.81288e-06
24 *125:36 *533:B 4.04556e-05
25 *125:36 *539:A2 0.000127686
26 *125:36 *126:29 4.74969e-05
27 *436:A *125:18 6.27782e-05
28 *545:A1 *537:A 3.67708e-05
29 *545:A1 *125:36 0.000326021
30 *10:24 *125:18 0
31 *124:12 *125:36 0.000115753
*RES
1 *534:Y *125:18 31.98 
2 *125:18 *543:A1 9.24915 
3 *125:18 *125:25 3.49641 
4 *125:25 *536:A 9.24915 
5 *125:25 *125:36 15.915 
6 *125:36 *537:A 17.9655 
7 *125:36 *545:A2 14.4725 
*END

*D_NET *126 0.00284642
*CONN
*I *537:B I *D sky130_fd_sc_hd__nand2_1
*I *536:B I *D sky130_fd_sc_hd__xor2_1
*I *543:A2 I *D sky130_fd_sc_hd__o21ai_0
*I *545:A3 I *D sky130_fd_sc_hd__o311ai_1
*I *535:Y O *D sky130_fd_sc_hd__nand2_2
*CAP
1 *537:B 0
2 *536:B 0
3 *543:A2 0.000117442
4 *545:A3 0.000115265
5 *535:Y 2.09413e-05
6 *126:29 0.000398777
7 *126:10 0.000463734
8 *126:6 8.8076e-05
9 *543:A2 *544:C 6.46815e-05
10 *545:A3 *532:A 4.1781e-05
11 *545:A3 *545:C1 3.11794e-06
12 *545:A3 *546:A2 3.99086e-06
13 *545:A3 *388:109 0.000150368
14 *126:6 *128:12 2.16355e-05
15 *126:6 *387:81 2.58757e-05
16 *126:10 *539:A1 0.000140502
17 *126:10 *540:B1 8.98943e-05
18 *126:29 P[0] 0.0002087
19 *126:29 *532:A 0.000136695
20 *126:29 *539:A1 0.000232447
21 *126:29 *540:B1 3.31882e-05
22 *126:29 *543:B1 7.28994e-06
23 *126:29 *376:16 0.00011449
24 *537:A *126:10 1.32509e-05
25 *545:A1 *126:29 3.81224e-05
26 *545:A2 *545:A3 3.60314e-05
27 *123:12 *126:29 0.0001403
28 *125:18 *543:A2 1.02267e-05
29 *125:25 *543:A2 8.20996e-05
30 *125:36 *126:29 4.74969e-05
*RES
1 *535:Y *126:6 9.97254 
2 *126:6 *126:10 7.1625 
3 *126:10 *545:A3 17.6314 
4 *126:10 *126:29 15.0523 
5 *126:29 *543:A2 12.7938 
6 *126:29 *536:B 9.24915 
7 *126:6 *537:B 9.24915 
*END

*D_NET *127 0.00209482
*CONN
*I *539:A2 I *D sky130_fd_sc_hd__a21oi_1
*I *536:X O *D sky130_fd_sc_hd__xor2_1
*CAP
1 *539:A2 0.000724446
2 *536:X 0.000724446
3 *539:A2 *533:B 4.04556e-05
4 *539:A2 *539:A1 0
5 *539:A2 *571:B 0.00015901
6 *539:A2 *288:14 5.05229e-05
7 *539:A2 *387:77 6.87335e-05
8 *539:A2 *397:27 0
9 *539:A2 *399:57 0
10 *537:A *539:A2 8.01741e-05
11 *124:12 *539:A2 0.00011935
12 *125:36 *539:A2 0.000127686
*RES
1 *536:X *539:A2 45.8361 
*END

*D_NET *128 0.00216585
*CONN
*I *540:B1 I *D sky130_fd_sc_hd__a21oi_2
*I *544:B I *D sky130_fd_sc_hd__nand3_1
*I *538:B I *D sky130_fd_sc_hd__nor2_1
*I *537:Y O *D sky130_fd_sc_hd__nand2_1
*CAP
1 *540:B1 6.85849e-05
2 *544:B 0.000172732
3 *538:B 0
4 *537:Y 0
5 *128:12 0.000494023
6 *128:4 0.000389876
7 *540:B1 *388:109 1.91391e-05
8 *544:B *542:A2 8.47993e-05
9 *544:B *376:16 4.70789e-05
10 *544:B *397:46 9.24075e-05
11 *128:12 *539:A1 0.000320858
12 *128:12 *539:B1 0.0002491
13 *128:12 *376:16 3.32165e-06
14 *128:12 *387:81 1.86908e-05
15 *128:12 *397:46 1.83627e-05
16 *537:A *540:B1 3.14345e-05
17 *545:A1 *540:B1 1.07248e-05
18 *126:6 *128:12 2.16355e-05
19 *126:10 *540:B1 8.98943e-05
20 *126:29 *540:B1 3.31882e-05
*RES
1 *537:Y *128:4 9.24915 
2 *128:4 *128:12 13.0499 
3 *128:12 *538:B 13.7491 
4 *128:12 *544:B 18.7077 
5 *128:4 *540:B1 20.4964 
*END

*D_NET *129 0.00137726
*CONN
*I *539:B1 I *D sky130_fd_sc_hd__a21oi_1
*I *538:Y O *D sky130_fd_sc_hd__nor2_1
*CAP
1 *539:B1 0.000289389
2 *538:Y 0.000289389
3 *539:B1 *535:A 0.000207371
4 *539:B1 *539:A1 0.000100951
5 *539:B1 *540:A2 3.37757e-05
6 *539:B1 *542:A2 3.91285e-05
7 *539:B1 *571:B 6.27718e-05
8 *539:B1 *131:16 3.39118e-05
9 *539:B1 *397:46 7.14746e-05
10 *128:12 *539:B1 0.0002491
*RES
1 *538:Y *539:B1 37.5282 
*END

*D_NET *130 0.0020378
*CONN
*I *542:A2 I *D sky130_fd_sc_hd__a21oi_2
*I *539:Y O *D sky130_fd_sc_hd__a21oi_1
*CAP
1 *542:A2 0.000533292
2 *539:Y 0.000533292
3 *542:A2 *535:A 6.04133e-05
4 *542:A2 *540:A2 0.000166331
5 *542:A2 *541:B 2.17447e-05
6 *542:A2 *544:C 0.000135592
7 *542:A2 *546:A1 0.000210648
8 *542:A2 *571:B 2.07353e-05
9 *542:A2 *131:16 1.2977e-05
10 *542:A2 *234:14 0
11 *542:A2 *307:22 0.000190679
12 *542:A2 *389:95 1.04747e-05
13 *542:A2 *397:46 1.76936e-05
14 *539:B1 *542:A2 3.91285e-05
15 *544:B *542:A2 8.47993e-05
*RES
1 *539:Y *542:A2 42.0988 
*END

*D_NET *131 0.00181246
*CONN
*I *541:B I *D sky130_fd_sc_hd__nor2_1
*I *546:B1 I *D sky130_fd_sc_hd__a21oi_1
*I *540:Y O *D sky130_fd_sc_hd__a21oi_2
*CAP
1 *541:B 0.000185726
2 *546:B1 1.01368e-05
3 *540:Y 0.000183733
4 *131:16 0.000379595
5 *541:B *544:C 9.2346e-06
6 *541:B *546:A1 7.09656e-05
7 *541:B *234:14 5.64209e-05
8 *546:B1 *546:A1 7.86825e-06
9 *546:B1 *234:14 2.01653e-05
10 *131:16 *546:A2 6.08467e-05
11 *131:16 *388:109 0.000319645
12 *131:16 *389:95 1.469e-05
13 *539:B1 *131:16 3.39118e-05
14 *542:A2 *541:B 2.17447e-05
15 *542:A2 *131:16 1.2977e-05
16 *544:A *541:B 0.000118
17 *125:18 *541:B 0.000306802
*RES
1 *540:Y *131:16 22.4363 
2 *131:16 *546:B1 14.1278 
3 *131:16 *541:B 20.7718 
*END

*D_NET *132 0.000730921
*CONN
*I *542:B1 I *D sky130_fd_sc_hd__a21oi_2
*I *541:Y O *D sky130_fd_sc_hd__nor2_1
*CAP
1 *542:B1 0.000234685
2 *541:Y 0.000234685
3 *542:B1 P[0] 7.92757e-06
4 *544:A *542:B1 1.65872e-05
5 *123:12 *542:B1 7.50803e-05
6 *123:23 *542:B1 0.000161956
*RES
1 *541:Y *542:B1 24.2372 
*END

*D_NET *133 0.00106605
*CONN
*I *544:C I *D sky130_fd_sc_hd__nand3_1
*I *543:Y O *D sky130_fd_sc_hd__o21ai_0
*CAP
1 *544:C 0.000322789
2 *543:Y 0.000322789
3 *541:B *544:C 9.2346e-06
4 *542:A2 *544:C 0.000135592
5 *543:A2 *544:C 6.46815e-05
6 *544:A *544:C 0.000111045
7 *125:18 *544:C 9.01008e-05
8 *125:25 *544:C 9.81288e-06
*RES
1 *543:Y *544:C 35.0395 
*END

*D_NET *134 0.000675246
*CONN
*I *546:A1 I *D sky130_fd_sc_hd__a21oi_1
*I *544:Y O *D sky130_fd_sc_hd__nand3_1
*CAP
1 *546:A1 0.000129554
2 *544:Y 0.000129554
3 *546:A1 *234:14 4.96202e-06
4 *546:A1 *389:114 6.08467e-05
5 *546:A1 *399:67 6.08467e-05
6 *541:B *546:A1 7.09656e-05
7 *542:A2 *546:A1 0.000210648
8 *546:B1 *546:A1 7.86825e-06
*RES
1 *544:Y *546:A1 32.1299 
*END

*D_NET *135 0.00126483
*CONN
*I *546:A2 I *D sky130_fd_sc_hd__a21oi_1
*I *545:Y O *D sky130_fd_sc_hd__o311ai_1
*CAP
1 *546:A2 0.000435169
2 *545:Y 0.000435169
3 *546:A2 *498:A 1.53125e-05
4 *546:A2 *532:A 0.000207266
5 *546:A2 *534:A 0
6 *546:A2 *540:A1 0.000107074
7 *545:A3 *546:A2 3.99086e-06
8 *131:16 *546:A2 6.08467e-05
*RES
1 *545:Y *546:A2 27.3237 
*END

*D_NET *136 0.00279634
*CONN
*I *551:B I *D sky130_fd_sc_hd__nor2_2
*I *552:A1 I *D sky130_fd_sc_hd__a21oi_1
*I *547:Y O *D sky130_fd_sc_hd__nand2_1
*CAP
1 *551:B 7.41849e-05
2 *552:A1 0.000215488
3 *547:Y 0.000658966
4 *136:8 0.000948639
5 *551:B *551:A 0.000127309
6 *551:B *416:22 2.25104e-05
7 *552:A1 *550:A1 0.000158002
8 *552:A1 *551:A 4.61962e-05
9 *552:A1 *641:A 3.06027e-05
10 *552:A1 *234:14 3.99086e-06
11 *552:A1 *265:18 8.29168e-05
12 *552:A1 *309:18 0.000159519
13 *552:A1 *416:22 3.49779e-05
14 *552:A1 *416:26 4.24488e-05
15 *136:8 *547:B 6.78596e-05
16 *136:8 *265:18 3.42017e-05
17 *136:8 *288:20 5.19222e-06
18 *136:8 *289:12 6.00782e-06
19 *136:8 *398:42 7.65364e-05
20 *5:12 *552:A1 7.8756e-07
*RES
1 *547:Y *136:8 23.3462 
2 *136:8 *552:A1 21.6395 
3 *136:8 *551:B 15.9964 
*END

*D_NET *137 0.000358338
*CONN
*I *549:B I *D sky130_fd_sc_hd__xor2_1
*I *548:Y O *D sky130_fd_sc_hd__nand2_1
*CAP
1 *549:B 0.000170142
2 *548:Y 0.000170142
3 *549:B *548:A 1.43832e-05
4 *549:B *553:A3 3.67089e-06
*RES
1 *548:Y *549:B 21.3195 
*END

*D_NET *138 0.000503691
*CONN
*I *552:A2 I *D sky130_fd_sc_hd__a21oi_1
*I *549:X O *D sky130_fd_sc_hd__xor2_1
*CAP
1 *552:A2 0.000158121
2 *549:X 0.000158121
3 *552:A2 *140:18 3.00174e-06
4 *552:A2 *226:16 4.75557e-05
5 *552:A2 *265:18 0.000112432
6 *552:A2 *288:26 2.44599e-05
*RES
1 *549:X *552:A2 32.2693 
*END

*D_NET *139 0.00216235
*CONN
*I *551:A I *D sky130_fd_sc_hd__nor2_2
*I *550:Y O *D sky130_fd_sc_hd__a21oi_2
*CAP
1 *551:A 0.000604605
2 *550:Y 0.000604605
3 *551:A *641:B 0.000138468
4 *551:A *234:14 0.000154145
5 *551:A *309:18 1.7428e-05
6 *551:A *382:99 0
7 *551:A *416:22 7.50722e-05
8 *551:B *551:A 0.000127309
9 *552:A1 *551:A 4.61962e-05
10 *812:A *551:A 0.000167749
11 *5:12 *551:A 0.000212768
12 *71:13 *551:A 1.40045e-05
*RES
1 *550:Y *551:A 47.5905 
*END

*D_NET *140 0.00135341
*CONN
*I *552:B1 I *D sky130_fd_sc_hd__a21oi_1
*I *553:B1 I *D sky130_fd_sc_hd__a31o_2
*I *551:Y O *D sky130_fd_sc_hd__nor2_2
*CAP
1 *552:B1 0
2 *553:B1 1.98947e-05
3 *551:Y 0.000325339
4 *140:18 0.000345234
5 *553:B1 *550:A1 2.16355e-05
6 *553:B1 *416:26 6.08467e-05
7 *140:18 *550:A1 2.08274e-05
8 *140:18 *658:A 0.000147335
9 *140:18 *674:A 7.42647e-05
10 *140:18 *226:16 0.000133626
11 *140:18 *265:18 7.45722e-06
12 *140:18 *382:99 8.92568e-06
13 *140:18 *416:22 0.000124174
14 *140:18 *416:26 6.08467e-05
15 *552:A2 *140:18 3.00174e-06
*RES
1 *551:Y *140:18 27.9524 
2 *140:18 *553:B1 9.97254 
3 *140:18 *552:B1 9.24915 
*END

*D_NET *141 0.00207628
*CONN
*I *563:A1 I *D sky130_fd_sc_hd__a211oi_2
*I *567:A1 I *D sky130_fd_sc_hd__a211o_1
*I *562:A I *D sky130_fd_sc_hd__nor2_1
*I *554:Y O *D sky130_fd_sc_hd__nand2_1
*CAP
1 *563:A1 0.000223264
2 *567:A1 0
3 *562:A 0.000131265
4 *554:Y 8.58115e-05
5 *141:21 0.000281384
6 *141:8 0.000275196
7 *562:A *569:B 4.80635e-06
8 *562:A *148:14 4.30291e-05
9 *562:A *149:10 0.000118166
10 *563:A1 *150:6 0.000109427
11 *563:A1 *225:10 2.1667e-05
12 *563:A1 *225:16 0.000195643
13 *141:8 *570:A1 0
14 *141:8 *800:A 4.06095e-05
15 *141:8 *380:18 0.00013799
16 *141:21 *570:A1 0
17 *141:21 *149:10 4.09467e-05
18 *141:21 *225:16 3.67708e-05
19 *11:32 *563:A1 0.000197928
20 *11:32 *141:8 1.04604e-05
21 *11:32 *141:21 0.000121913
*RES
1 *554:Y *141:8 16.8269 
2 *141:8 *562:A 17.2697 
3 *141:8 *141:21 2.6625 
4 *141:21 *567:A1 13.7491 
5 *141:21 *563:A1 21.1538 
*END

*D_NET *142 0.00298335
*CONN
*I *557:A I *D sky130_fd_sc_hd__nand2_1
*I *558:A I *D sky130_fd_sc_hd__xnor2_1
*I *561:A I *D sky130_fd_sc_hd__nand3_1
*I *579:A1 I *D sky130_fd_sc_hd__o31ai_1
*I *578:A I *D sky130_fd_sc_hd__maj3_2
*I *555:Y O *D sky130_fd_sc_hd__nand2_2
*CAP
1 *557:A 6.7512e-05
2 *558:A 9.06787e-05
3 *561:A 0
4 *579:A1 5.28903e-05
5 *578:A 6.8201e-05
6 *555:Y 0
7 *142:41 0.000242784
8 *142:32 0.0002212
9 *142:17 0.00027446
10 *142:6 0.000153164
11 *557:A *557:B 5.16917e-05
12 *557:A *560:A0 0.000114594
13 *558:A *143:29 0.000143047
14 *578:A *146:21 5.85383e-05
15 *578:A *389:62 0.000141677
16 *579:A1 *579:A2 6.27782e-05
17 *579:A1 *579:B1 3.96696e-05
18 *579:A1 *580:B1 6.27782e-05
19 *142:17 *146:21 0.000108871
20 *142:17 *389:62 7.05004e-05
21 *142:17 *389:79 0.000176652
22 *142:32 *804:A 8.19079e-05
23 *142:32 *146:21 1.41215e-05
24 *142:32 *389:79 0.000213814
25 *142:41 *557:B 6.50727e-05
26 *142:41 *560:A0 0.000324137
27 *142:41 *560:S 3.33999e-05
28 *142:41 *374:10 4.92057e-05
*RES
1 *555:Y *142:6 13.7491 
2 *142:6 *578:A 16.4116 
3 *142:6 *142:17 4.32351 
4 *142:17 *579:A1 15.5817 
5 *142:17 *142:32 9.14105 
6 *142:32 *561:A 9.24915 
7 *142:32 *142:41 4.07513 
8 *142:41 *558:A 20.9116 
9 *142:41 *557:A 11.6605 
*END

*D_NET *143 0.00387221
*CONN
*I *558:B I *D sky130_fd_sc_hd__xnor2_1
*I *557:B I *D sky130_fd_sc_hd__nand2_1
*I *579:A3 I *D sky130_fd_sc_hd__o31ai_1
*I *578:C I *D sky130_fd_sc_hd__maj3_2
*I *561:C I *D sky130_fd_sc_hd__nand3_1
*I *556:Y O *D sky130_fd_sc_hd__nand2_2
*CAP
1 *558:B 0
2 *557:B 3.52928e-05
3 *579:A3 0
4 *578:C 0.000388171
5 *561:C 0.000125409
6 *556:Y 0.000393763
7 *143:31 0.000498268
8 *143:29 0.000264887
9 *143:25 0.000191212
10 *143:10 0.000590887
11 *561:C *640:B 0.000203833
12 *561:C *147:6 6.23875e-05
13 *561:C *389:79 0.000200236
14 *578:C *580:A2 3.00829e-05
15 *578:C *804:A 0
16 *578:C *146:21 0
17 *143:10 *640:CIN 0.000285536
18 *143:10 *389:79 0.000192693
19 *143:25 *560:A1 7.48633e-05
20 *143:25 *147:6 7.48797e-05
21 *143:29 *560:A0 0
22 *143:29 *389:79 0
23 *143:31 *804:A 0
24 *557:A *557:B 5.16917e-05
25 *558:A *143:29 0.000143047
26 *142:41 *557:B 6.50727e-05
*RES
1 *556:Y *143:10 30.8777 
2 *143:10 *561:C 23.5748 
3 *143:10 *143:25 2.94181 
4 *143:25 *143:29 7.993 
5 *143:29 *143:31 2.6625 
6 *143:31 *578:C 22.6727 
7 *143:31 *579:A3 13.7491 
8 *143:29 *557:B 15.0271 
9 *143:25 *558:B 9.24915 
*END

*D_NET *144 0.00131222
*CONN
*I *560:A0 I *D sky130_fd_sc_hd__mux2i_2
*I *557:Y O *D sky130_fd_sc_hd__nand2_1
*CAP
1 *560:A0 0.000360821
2 *557:Y 0.000360821
3 *560:A0 *560:S 1.61631e-05
4 *560:A0 *374:10 4.91225e-06
5 *560:A0 *389:79 0.000130777
6 *557:A *560:A0 0.000114594
7 *142:41 *560:A0 0.000324137
8 *143:29 *560:A0 0
*RES
1 *557:Y *560:A0 34.9058 
*END

*D_NET *145 0.000585206
*CONN
*I *560:A1 I *D sky130_fd_sc_hd__mux2i_2
*I *558:Y O *D sky130_fd_sc_hd__xnor2_1
*CAP
1 *560:A1 0.000255171
2 *558:Y 0.000255171
3 *143:25 *560:A1 7.48633e-05
*RES
1 *558:Y *560:A1 24.2613 
*END

*D_NET *146 0.00171099
*CONN
*I *804:A I *D sky130_fd_sc_hd__buf_4
*I *579:A2 I *D sky130_fd_sc_hd__o31ai_1
*I *578:B I *D sky130_fd_sc_hd__maj3_2
*I *559:Y O *D sky130_fd_sc_hd__nand2_2
*CAP
1 *804:A 0.000121009
2 *579:A2 1.77345e-05
3 *578:B 8.42604e-06
4 *559:Y 0.000111054
5 *146:21 0.000422103
6 *146:10 0.00040284
7 *579:A2 *579:B1 0.000144734
8 *579:A2 *580:B1 3.45954e-05
9 *146:10 *580:A2 7.33528e-05
10 *146:10 *389:62 4.89251e-05
11 *578:A *146:21 5.85383e-05
12 *578:C *804:A 0
13 *578:C *146:21 0
14 *579:A1 *579:A2 6.27782e-05
15 *142:17 *146:21 0.000108871
16 *142:32 *804:A 8.19079e-05
17 *142:32 *146:21 1.41215e-05
18 *143:31 *804:A 0
*RES
1 *559:Y *146:10 12.9385 
2 *146:10 *578:B 9.55056 
3 *146:10 *146:21 11.7303 
4 *146:21 *579:A2 15.3044 
5 *146:21 *804:A 17.2421 
*END

*D_NET *147 0.00227795
*CONN
*I *567:A2 I *D sky130_fd_sc_hd__a211o_1
*I *563:A2 I *D sky130_fd_sc_hd__a211oi_2
*I *570:A2 I *D sky130_fd_sc_hd__o211ai_1
*I *560:Y O *D sky130_fd_sc_hd__mux2i_2
*CAP
1 *567:A2 0.000118044
2 *563:A2 5.09017e-05
3 *570:A2 0.000317561
4 *560:Y 0.00038722
5 *147:6 0.000637639
6 *563:A2 *388:76 0.000124086
7 *563:A2 *395:57 5.3633e-05
8 *567:A2 *570:C1 1.80122e-05
9 *567:A2 *157:6 0.000307023
10 *567:A2 *225:16 4.31703e-05
11 *570:A2 *570:C1 1.83216e-05
12 *570:A2 *157:6 6.50727e-05
13 *561:C *147:6 6.23875e-05
14 *143:25 *147:6 7.48797e-05
*RES
1 *560:Y *147:6 14.964 
2 *147:6 *570:A2 12.191 
3 *147:6 *563:A2 20.4964 
4 *570:A2 *567:A2 22.5734 
*END

*D_NET *148 0.00247841
*CONN
*I *569:B I *D sky130_fd_sc_hd__nand2_1
*I *562:B I *D sky130_fd_sc_hd__nor2_1
*I *800:A I *D sky130_fd_sc_hd__buf_4
*I *561:Y O *D sky130_fd_sc_hd__nand3_1
*CAP
1 *569:B 9.5568e-06
2 *562:B 0
3 *800:A 0.0002842
4 *561:Y 0.00022637
5 *148:14 0.000410083
6 *148:10 0.000361809
7 *800:A *554:B 6.26152e-05
8 *800:A *568:A 6.27782e-05
9 *800:A *570:A1 0.000151741
10 *800:A *592:B 9.71636e-05
11 *800:A *165:6 0.000545362
12 *800:A *370:14 5.481e-05
13 *800:A *399:40 1.70077e-05
14 *148:10 *560:S 4.43826e-05
15 *148:10 *569:A 4.58158e-05
16 *148:10 *570:B1 1.19721e-05
17 *148:10 *374:10 0
18 *148:14 *570:B1 4.30017e-06
19 *562:A *569:B 4.80635e-06
20 *562:A *148:14 4.30291e-05
21 *141:8 *800:A 4.06095e-05
*RES
1 *561:Y *148:10 14.6023 
2 *148:10 *148:14 2.96592 
3 *148:14 *800:A 29.1449 
4 *148:14 *562:B 9.24915 
5 *148:10 *569:B 9.82786 
*END

*D_NET *149 0.00099549
*CONN
*I *563:B1 I *D sky130_fd_sc_hd__a211oi_2
*I *567:B1 I *D sky130_fd_sc_hd__a211o_1
*I *562:Y O *D sky130_fd_sc_hd__nor2_1
*CAP
1 *563:B1 0.000117632
2 *567:B1 0
3 *562:Y 0.000132965
4 *149:10 0.000250596
5 *563:B1 *570:A1 5.22654e-06
6 *563:B1 *225:10 1.03594e-05
7 *563:B1 *225:16 0.000184918
8 *563:B1 *399:40 5.10045e-05
9 *149:10 *570:A1 5.04879e-05
10 *149:10 *225:16 3.31882e-05
11 *562:A *149:10 0.000118166
12 *141:21 *149:10 4.09467e-05
*RES
1 *562:Y *149:10 17.2744 
2 *149:10 *567:B1 13.7491 
3 *149:10 *563:B1 17.9749 
*END

*D_NET *150 0.000950958
*CONN
*I *792:A I *D sky130_fd_sc_hd__buf_4
*I *574:B1 I *D sky130_fd_sc_hd__a21o_1
*I *563:Y O *D sky130_fd_sc_hd__a211oi_2
*CAP
1 *792:A 1.53005e-05
2 *574:B1 0.000114307
3 *563:Y 0.000229657
4 *150:6 0.000359265
5 *574:B1 *564:A 1.0759e-05
6 *574:B1 *574:A2 6.86504e-05
7 *574:B1 *362:8 7.92757e-06
8 *792:A *574:A2 1.02267e-05
9 *150:6 *362:8 2.54369e-05
10 *563:A1 *150:6 0.000109427
*RES
1 *563:Y *150:6 14.4094 
2 *150:6 *574:B1 12.2151 
3 *150:6 *792:A 9.82786 
*END

*D_NET *151 0.00200645
*CONN
*I *574:A2 I *D sky130_fd_sc_hd__a21o_1
*I *803:A I *D sky130_fd_sc_hd__buf_4
*I *575:C I *D sky130_fd_sc_hd__nor3_1
*I *564:Y O *D sky130_fd_sc_hd__nand2_1
*CAP
1 *574:A2 0.000105254
2 *803:A 5.85663e-05
3 *575:C 0.000168835
4 *564:Y 0
5 *151:6 0.000281099
6 *151:4 0.000158952
7 *574:A2 *564:A 2.30636e-05
8 *574:A2 *362:8 0.000342494
9 *574:A2 *382:56 7.01935e-06
10 *575:C *571:C 0.000131995
11 *575:C *576:A1 7.20022e-05
12 *575:C *289:12 2.04806e-05
13 *803:A *362:8 1.3808e-05
14 *803:A *373:8 0.000107496
15 *803:A *382:41 0.000159016
16 *151:6 *362:8 0.000204651
17 *151:6 *382:41 1.88422e-05
18 *151:6 *382:56 5.40018e-05
19 *574:B1 *574:A2 6.86504e-05
20 *792:A *574:A2 1.02267e-05
*RES
1 *564:Y *151:4 9.24915 
2 *151:4 *151:6 2.38721 
3 *151:6 *575:C 22.4749 
4 *151:6 *803:A 11.6605 
5 *151:4 *574:A2 13.8789 
*END

*D_NET *152 0.00214021
*CONN
*I *573:A I *D sky130_fd_sc_hd__nand3_1
*I *565:Y O *D sky130_fd_sc_hd__nand4_1
*CAP
1 *573:A 0.000404601
2 *565:Y 0.000404601
3 *573:A *469:B 8.62625e-06
4 *573:A *565:C 0.000164829
5 *573:A *573:B 0.000121719
6 *573:A *573:C 0.000269375
7 *573:A *386:10 0.000230453
8 *573:A *386:32 0.000160001
9 *573:A *417:10 0.000376
*RES
1 *565:Y *573:A 41.2391 
*END

*D_NET *153 0.000427349
*CONN
*I *802:A I *D sky130_fd_sc_hd__buf_4
*I *575:A I *D sky130_fd_sc_hd__nor3_1
*I *566:Y O *D sky130_fd_sc_hd__nand2_1
*CAP
1 *802:A 4.3426e-05
2 *575:A 0
3 *566:Y 0.00012066
4 *153:6 0.000164086
5 *802:A *566:A 0
6 *802:A *157:8 2.65667e-05
7 *153:6 *566:A 2.65831e-05
8 *153:6 *571:C 2.82583e-05
9 *153:6 *157:8 1.777e-05
*RES
1 *566:Y *153:6 12.191 
2 *153:6 *575:A 9.24915 
3 *153:6 *802:A 10.5513 
*END

*D_NET *154 0.00509365
*CONN
*I *571:B I *D sky130_fd_sc_hd__nand4_1
*I *576:B1 I *D sky130_fd_sc_hd__a21oi_1
*I *567:X O *D sky130_fd_sc_hd__a211o_1
*CAP
1 *571:B 0.000569334
2 *576:B1 0.000786987
3 *567:X 0.000136268
4 *154:8 0.00149259
5 *571:B *539:A1 6.46815e-05
6 *571:B *571:C 6.08467e-05
7 *571:B *288:14 7.28567e-06
8 *571:B *387:77 0.000264968
9 *576:B1 *576:A2 4.89392e-05
10 *576:B1 *591:A2 0.000161156
11 *576:B1 *592:A 0.000253367
12 *576:B1 *610:A2 0.000319078
13 *576:B1 *801:A 7.01935e-06
14 *576:B1 *176:8 1.77405e-05
15 *576:B1 *370:14 6.08467e-05
16 *576:B1 *387:77 0.000383561
17 *154:8 *157:6 0.000216467
18 *539:A2 *571:B 0.00015901
19 *539:B1 *571:B 6.27718e-05
20 *542:A2 *571:B 2.07353e-05
21 *11:32 *571:B 0
22 *11:32 *576:B1 0
*RES
1 *567:X *154:8 16.1364 
2 *154:8 *576:B1 32.3981 
3 *154:8 *571:B 27.9697 
*END

*D_NET *155 0.00293679
*CONN
*I *579:B1 I *D sky130_fd_sc_hd__o31ai_1
*I *570:A1 I *D sky130_fd_sc_hd__o211ai_1
*I *580:A1 I *D sky130_fd_sc_hd__o21ai_2
*I *569:A I *D sky130_fd_sc_hd__nand2_1
*I *568:X O *D sky130_fd_sc_hd__and2_2
*CAP
1 *579:B1 0.000274872
2 *570:A1 0.000223956
3 *580:A1 0.000342687
4 *569:A 0.000136095
5 *568:X 0.0002555
6 *155:6 0.000235453
7 *569:A *570:B1 5.04829e-06
8 *569:A *388:76 0.000191541
9 *569:A *399:40 5.20375e-05
10 *570:A1 *165:6 0.000115934
11 *570:A1 *399:40 0.000304998
12 *579:B1 *580:B1 2.91001e-05
13 *580:A1 *165:6 0.000213725
14 *155:6 *165:6 0.000118166
15 *563:B1 *570:A1 5.22654e-06
16 *579:A1 *579:B1 3.96696e-05
17 *579:A2 *579:B1 0.000144734
18 *800:A *570:A1 0.000151741
19 *141:8 *570:A1 0
20 *141:21 *570:A1 0
21 *148:10 *569:A 4.58158e-05
22 *149:10 *570:A1 5.04879e-05
*RES
1 *568:X *155:6 10.5271 
2 *155:6 *569:A 22.4655 
3 *155:6 *580:A1 11.6364 
4 *568:X *570:A1 34.3456 
5 *580:A1 *579:B1 25.2259 
*END

*D_NET *156 0.000354358
*CONN
*I *570:B1 I *D sky130_fd_sc_hd__o211ai_1
*I *569:Y O *D sky130_fd_sc_hd__nand2_1
*CAP
1 *570:B1 0.000114309
2 *569:Y 0.000114309
3 *570:B1 *388:76 5.04734e-05
4 *570:B1 *399:40 5.39463e-05
5 *569:A *570:B1 5.04829e-06
6 *148:10 *570:B1 1.19721e-05
7 *148:14 *570:B1 4.30017e-06
*RES
1 *569:Y *570:B1 30.4689 
*END

*D_NET *157 0.00347514
*CONN
*I *574:A1 I *D sky130_fd_sc_hd__a21o_1
*I *575:B I *D sky130_fd_sc_hd__nor3_1
*I *571:C I *D sky130_fd_sc_hd__nand4_1
*I *570:Y O *D sky130_fd_sc_hd__o211ai_1
*CAP
1 *574:A1 0.000106317
2 *575:B 0
3 *571:C 0.000258818
4 *570:Y 0.000314639
5 *157:8 0.000503032
6 *157:6 0.00066517
7 *571:C *566:A 1.61631e-05
8 *571:C *571:A 1.5714e-05
9 *571:C *573:B 1.41976e-05
10 *571:C *576:A1 7.74044e-06
11 *571:C *658:B 0.000111722
12 *571:C *234:14 1.58551e-05
13 *571:C *289:12 0.000302363
14 *571:C *307:22 0
15 *574:A1 *372:27 0
16 *574:A1 *387:77 0.000165488
17 *157:6 *570:C1 7.98425e-06
18 *157:8 *658:B 0.000115934
19 *567:A2 *157:6 0.000307023
20 *570:A2 *157:6 6.50727e-05
21 *571:B *571:C 6.08467e-05
22 *575:C *571:C 0.000131995
23 *802:A *157:8 2.65667e-05
24 *153:6 *571:C 2.82583e-05
25 *153:6 *157:8 1.777e-05
26 *154:8 *157:6 0.000216467
*RES
1 *570:Y *157:6 17.737 
2 *157:6 *157:8 5.71483 
3 *157:8 *571:C 26.7897 
4 *157:8 *575:B 9.24915 
5 *157:6 *574:A1 21.3269 
*END

*D_NET *158 0.000860465
*CONN
*I *573:B I *D sky130_fd_sc_hd__nand3_1
*I *571:Y O *D sky130_fd_sc_hd__nand4_1
*CAP
1 *573:B 0.000197835
2 *571:Y 0.000197835
3 *573:B *573:C 3.7041e-05
4 *573:B *234:14 0.000270202
5 *573:B *417:10 2.16355e-05
6 *571:C *573:B 1.41976e-05
7 *573:A *573:B 0.000121719
*RES
1 *571:Y *573:B 26.4798 
*END

*D_NET *159 0.00148874
*CONN
*I *573:C I *D sky130_fd_sc_hd__nand3_1
*I *572:Y O *D sky130_fd_sc_hd__nand4_1
*CAP
1 *573:C 0.000476496
2 *572:Y 0.000476496
3 *573:C *571:D 2.8322e-05
4 *573:C *234:14 9.99867e-06
5 *573:C *309:18 6.08467e-05
6 *573:C *382:32 6.93171e-05
7 *573:C *417:10 6.08467e-05
8 *573:A *573:C 0.000269375
9 *573:B *573:C 3.7041e-05
*RES
1 *572:Y *573:C 36.4866 
*END

*D_NET *160 0.000846233
*CONN
*I *577:A2 I *D sky130_fd_sc_hd__a211oi_2
*I *574:X O *D sky130_fd_sc_hd__a21o_1
*CAP
1 *577:A2 0.000189235
2 *574:X 0.000189235
3 *577:A2 *564:B 3.00174e-06
4 *577:A2 *577:A1 0.000156823
5 *577:A2 *610:C1 5.22654e-06
6 *577:A2 *362:8 6.08467e-05
7 *577:A2 *372:27 0.000110294
8 *577:A2 *385:84 0.000131572
9 *577:A2 *387:77 0
*RES
1 *574:X *577:A2 33.791 
*END

*D_NET *161 0.000226759
*CONN
*I *577:B1 I *D sky130_fd_sc_hd__a211oi_2
*I *575:Y O *D sky130_fd_sc_hd__nor3_1
*CAP
1 *577:B1 5.69731e-05
2 *575:Y 5.69731e-05
3 *577:B1 *576:A1 5.88662e-05
4 *577:B1 *289:12 5.39463e-05
*RES
1 *575:Y *577:B1 29.7455 
*END

*D_NET *162 0.00118564
*CONN
*I *577:C1 I *D sky130_fd_sc_hd__a211oi_2
*I *576:Y O *D sky130_fd_sc_hd__a21oi_1
*CAP
1 *577:C1 0.000241573
2 *576:Y 0.000241573
3 *577:C1 *576:A1 3.18408e-05
4 *577:C1 *595:A 0.000122978
5 *577:C1 *663:A 1.43848e-05
6 *577:C1 *289:12 0.000226246
7 *577:C1 *385:61 5.57012e-05
8 *577:C1 *385:84 0.000139632
9 *11:32 *577:C1 0.000111708
*RES
1 *576:Y *577:C1 36.0066 
*END

*D_NET *163 0.00138672
*CONN
*I *580:A2 I *D sky130_fd_sc_hd__o21ai_2
*I *578:X O *D sky130_fd_sc_hd__maj3_2
*CAP
1 *580:A2 0.000373521
2 *578:X 0.000373521
3 *580:A2 *640:B 0.000173175
4 *580:A2 *389:62 0.000139817
5 *580:A2 *389:79 0.000164809
6 *580:A2 *395:57 5.84419e-05
7 *578:C *580:A2 3.00829e-05
8 *146:10 *580:A2 7.33528e-05
*RES
1 *578:X *580:A2 37.1186 
*END

*D_NET *164 0.000355822
*CONN
*I *580:B1 I *D sky130_fd_sc_hd__o21ai_2
*I *579:Y O *D sky130_fd_sc_hd__o31ai_1
*CAP
1 *580:B1 0.000114674
2 *579:Y 0.000114674
3 *579:A1 *580:B1 6.27782e-05
4 *579:A2 *580:B1 3.45954e-05
5 *579:B1 *580:B1 2.91001e-05
*RES
1 *579:Y *580:B1 21.4401 
*END

*D_NET *165 0.00326736
*CONN
*I *591:A2 I *D sky130_fd_sc_hd__a22oi_2
*I *592:B I *D sky130_fd_sc_hd__and4_1
*I *580:Y O *D sky130_fd_sc_hd__o21ai_2
*CAP
1 *591:A2 8.7586e-05
2 *592:B 0.000153971
3 *580:Y 0.000445448
4 *165:6 0.000687005
5 *591:A2 *801:A 5.03545e-06
6 *591:A2 *387:77 0.000209975
7 *592:B *592:D 0.000114271
8 *592:B *177:10 0.000210531
9 *592:B *370:14 6.63616e-05
10 *165:6 *554:B 9.81288e-06
11 *165:6 *399:14 2.58616e-05
12 *570:A1 *165:6 0.000115934
13 *576:B1 *591:A2 0.000161156
14 *580:A1 *165:6 0.000213725
15 *800:A *592:B 9.71636e-05
16 *800:A *165:6 0.000545362
17 *155:6 *165:6 0.000118166
*RES
1 *580:Y *165:6 21.6192 
2 *165:6 *592:B 14.4576 
3 *165:6 *591:A2 22.1574 
*END

*D_NET *166 0.000312889
*CONN
*I *582:A I *D sky130_fd_sc_hd__inv_1
*I *581:Y O *D sky130_fd_sc_hd__nand2_1
*CAP
1 *582:A 0.000117054
2 *581:Y 0.000117054
3 *582:A *581:B 3.30668e-05
4 *582:A *167:8 4.57145e-05
*RES
1 *581:Y *582:A 21.7837 
*END

*D_NET *167 0.00260388
*CONN
*I *610:B2 I *D sky130_fd_sc_hd__o221ai_2
*I *586:A I *D sky130_fd_sc_hd__nand2_1
*I *590:C1 I *D sky130_fd_sc_hd__a211o_1
*I *582:Y O *D sky130_fd_sc_hd__inv_1
*CAP
1 *610:B2 0.00030631
2 *586:A 0
3 *590:C1 0.000199668
4 *582:Y 0.000102507
5 *167:10 0.000213932
6 *167:8 0.00042308
7 *590:C1 *590:B1 1.07248e-05
8 *590:C1 *610:C1 5.03545e-06
9 *590:C1 *168:10 2.3939e-05
10 *590:C1 *170:10 5.3633e-05
11 *590:C1 *175:8 0
12 *590:C1 *387:77 0.000333062
13 *610:B2 *610:B1 2.27135e-05
14 *610:B2 *610:C1 0.00016976
15 *610:B2 *370:14 0.000114659
16 *610:B2 *387:77 0.000451702
17 *167:10 *610:C1 2.44579e-05
18 *167:10 *387:77 5.71849e-05
19 *582:A *167:8 4.57145e-05
20 *601:A *590:C1 0
21 *11:32 *610:B2 4.58003e-05
*RES
1 *582:Y *167:8 15.8591 
2 *167:8 *167:10 1.00149 
3 *167:10 *590:C1 20.5642 
4 *167:10 *586:A 13.7491 
5 *167:8 *610:B2 24.7489 
*END

*D_NET *168 0.00381716
*CONN
*I *585:A I *D sky130_fd_sc_hd__nand2_1
*I *589:A I *D sky130_fd_sc_hd__nor2b_1
*I *590:A1 I *D sky130_fd_sc_hd__a211o_1
*I *609:A2 I *D sky130_fd_sc_hd__a21oi_2
*I *583:Y O *D sky130_fd_sc_hd__nand2_2
*CAP
1 *585:A 9.21648e-05
2 *589:A 0
3 *590:A1 8.35558e-05
4 *609:A2 0.000243897
5 *583:Y 0.000108058
6 *168:23 0.000126166
7 *168:10 0.000451875
8 *168:8 0.000365591
9 *585:A *585:B 0.000107496
10 *585:A *801:A 2.652e-05
11 *585:A *387:77 6.43474e-05
12 *590:A1 *589:B_N 6.50727e-05
13 *590:A1 *590:B1 7.09685e-05
14 *609:A2 *609:A1 0.000168547
15 *609:A2 *385:23 0.0005502
16 *168:10 *584:B2 8.37812e-05
17 *168:10 *590:B1 3.90689e-06
18 *168:10 *609:A1 6.25413e-05
19 *168:10 *801:A 2.47663e-05
20 *168:10 *385:23 0.00013592
21 *168:10 *387:77 0.000101148
22 *168:23 *589:B_N 0.000211478
23 *168:23 *590:B1 6.27782e-05
24 *590:C1 *168:10 2.3939e-05
25 *601:A *590:A1 0.000169093
26 *810:A *609:A2 0.000160524
27 *810:A *168:10 8.62625e-06
28 *12:26 *168:8 0.000162641
29 *79:6 *590:A1 3.00829e-05
30 *79:6 *168:23 5.14737e-05
*RES
1 *583:Y *168:8 15.5817 
2 *168:8 *168:10 5.56926 
3 *168:10 *609:A2 23.8862 
4 *168:10 *168:23 6.88721 
5 *168:23 *590:A1 22.0503 
6 *168:23 *589:A 9.24915 
7 *168:8 *585:A 16.4439 
*END

*D_NET *169 0.00444703
*CONN
*I *585:B I *D sky130_fd_sc_hd__nand2_1
*I *589:B_N I *D sky130_fd_sc_hd__nor2b_1
*I *609:B1 I *D sky130_fd_sc_hd__a21oi_2
*I *584:Y O *D sky130_fd_sc_hd__a22oi_2
*CAP
1 *585:B 0.000296146
2 *589:B_N 0.000295633
3 *609:B1 0.000435273
4 *584:Y 1.91778e-05
5 *169:10 0.000810398
6 *169:8 0.000394815
7 *585:B *583:A 0.000114584
8 *585:B *583:B 4.58907e-05
9 *585:B *170:10 1.84293e-05
10 *585:B *380:18 0.000192411
11 *589:B_N *380:18 0.000165521
12 *609:B1 *610:B1 0.00013997
13 *609:B1 *380:18 2.75449e-05
14 *609:B1 *388:33 1.33319e-05
15 *609:B1 *388:48 7.00289e-05
16 *169:8 *584:A1 0.000181024
17 *169:8 *191:8 1.88014e-05
18 *169:10 *380:18 0.000109978
19 *459:B *609:B1 4.08414e-05
20 *585:A *585:B 0.000107496
21 *590:A1 *589:B_N 6.50727e-05
22 *12:26 *585:B 0.00056165
23 *13:18 *609:B1 2.99287e-05
24 *13:75 *609:B1 3.4403e-05
25 *79:6 *589:B_N 4.72068e-05
26 *168:23 *589:B_N 0.000211478
*RES
1 *584:Y *169:8 15.0271 
2 *169:8 *169:10 2.24725 
3 *169:10 *609:B1 25.0248 
4 *169:10 *589:B_N 21.1278 
5 *169:8 *585:B 24.5056 
*END

*D_NET *170 0.00152974
*CONN
*I *610:C1 I *D sky130_fd_sc_hd__o221ai_2
*I *586:B I *D sky130_fd_sc_hd__nand2_1
*I *585:Y O *D sky130_fd_sc_hd__nand2_1
*CAP
1 *610:C1 0.000369169
2 *586:B 0
3 *585:Y 0.000121297
4 *170:10 0.000490466
5 *610:C1 *576:A1 0
6 *610:C1 *577:A1 1.61631e-05
7 *610:C1 *592:C 4.63668e-05
8 *610:C1 *171:10 6.50233e-05
9 *610:C1 *370:14 0.00011815
10 *610:C1 *385:84 0
11 *170:10 *175:8 0
12 *577:A2 *610:C1 5.22654e-06
13 *585:B *170:10 1.84293e-05
14 *590:C1 *610:C1 5.03545e-06
15 *590:C1 *170:10 5.3633e-05
16 *610:B2 *610:C1 0.00016976
17 *11:32 *610:C1 2.65667e-05
18 *167:10 *610:C1 2.44579e-05
*RES
1 *585:Y *170:10 16.7198 
2 *170:10 *586:B 13.7491 
3 *170:10 *610:C1 25.0248 
*END

*D_NET *171 0.000772152
*CONN
*I *592:C I *D sky130_fd_sc_hd__and4_1
*I *591:B1 I *D sky130_fd_sc_hd__a22oi_2
*I *586:Y O *D sky130_fd_sc_hd__nand2_1
*CAP
1 *592:C 7.32808e-05
2 *591:B1 0
3 *586:Y 0.00019968
4 *171:10 0.000272961
5 *592:C *592:D 4.13313e-05
6 *171:10 *592:D 5.03545e-06
7 *171:10 *175:8 6.84737e-05
8 *610:C1 *592:C 4.63668e-05
9 *610:C1 *171:10 6.50233e-05
*RES
1 *586:Y *171:10 18.2442 
2 *171:10 *591:B1 13.7491 
3 *171:10 *592:C 15.9964 
*END

*D_NET *172 0.00039452
*CONN
*I *588:B I *D sky130_fd_sc_hd__xor2_1
*I *587:Y O *D sky130_fd_sc_hd__nand2_1
*CAP
1 *588:B 0.000130851
2 *587:Y 0.000130851
3 *588:B *643:B 0
4 *588:B *385:33 6.50727e-05
5 *601:B *588:B 6.77457e-05
*RES
1 *587:Y *588:B 30.8842 
*END

*D_NET *173 0.000624059
*CONN
*I *590:A2 I *D sky130_fd_sc_hd__a211o_1
*I *588:X O *D sky130_fd_sc_hd__xor2_1
*CAP
1 *590:A2 0.000108937
2 *588:X 0.000108937
3 *590:A2 *460:B 0.000199597
4 *590:A2 *587:B 2.16355e-05
5 *590:A2 *385:23 0.000107496
6 *590:A2 *387:35 1.65872e-05
7 *601:B *590:A2 6.0871e-05
*RES
1 *588:X *590:A2 32.2693 
*END

*D_NET *174 0.00051236
*CONN
*I *590:B1 I *D sky130_fd_sc_hd__a211o_1
*I *589:Y O *D sky130_fd_sc_hd__nor2b_1
*CAP
1 *590:B1 0.000111807
2 *589:Y 0.000111807
3 *590:B1 *385:23 6.7156e-05
4 *590:A1 *590:B1 7.09685e-05
5 *590:C1 *590:B1 1.07248e-05
6 *601:A *590:B1 8.53106e-06
7 *79:6 *590:B1 6.46815e-05
8 *168:10 *590:B1 3.90689e-06
9 *168:23 *590:B1 6.27782e-05
*RES
1 *589:Y *590:B1 31.7147 
*END

*D_NET *175 0.00147145
*CONN
*I *592:D I *D sky130_fd_sc_hd__and4_1
*I *591:B2 I *D sky130_fd_sc_hd__a22oi_2
*I *590:X O *D sky130_fd_sc_hd__a211o_1
*CAP
1 *592:D 0.000145787
2 *591:B2 0
3 *590:X 0.000355208
4 *175:8 0.000500995
5 *592:D *592:A 0.00011815
6 *592:D *177:10 1.88563e-05
7 *175:8 *385:61 0
8 *590:C1 *175:8 0
9 *592:B *592:D 0.000114271
10 *592:C *592:D 4.13313e-05
11 *601:A *175:8 6.31809e-05
12 *601:B *175:8 4.01573e-05
13 *170:10 *175:8 0
14 *171:10 *592:D 5.03545e-06
15 *171:10 *175:8 6.84737e-05
*RES
1 *590:X *175:8 23.0557 
2 *175:8 *591:B2 13.7491 
3 *175:8 *592:D 18.2442 
*END

*D_NET *176 0.00137863
*CONN
*I *596:A I *D sky130_fd_sc_hd__nor2_1
*I *593:B I *D sky130_fd_sc_hd__nor3_1
*I *594:A2 I *D sky130_fd_sc_hd__a21o_1
*I *591:Y O *D sky130_fd_sc_hd__a22oi_2
*CAP
1 *596:A 0
2 *593:B 6.03454e-05
3 *594:A2 0
4 *591:Y 0.000170555
5 *176:16 0.000171562
6 *176:8 0.000281772
7 *593:B *594:A1 7.66391e-06
8 *593:B *594:B1 0.000128716
9 *593:B *595:B 6.08467e-05
10 *593:B *177:10 6.08467e-05
11 *176:8 *576:A2 0.000112367
12 *176:8 *592:A 7.01935e-06
13 *176:8 *595:B 6.46815e-05
14 *176:8 *596:B 8.1007e-05
15 *176:16 *469:A 3.44412e-06
16 *176:16 *594:A1 2.58757e-05
17 *176:16 *594:B1 1.88563e-05
18 *176:16 *595:B 7.22413e-05
19 *176:16 *237:12 3.30938e-05
20 *576:B1 *176:8 1.77405e-05
*RES
1 *591:Y *176:8 14.4335 
2 *176:8 *176:16 12.8011 
3 *176:16 *594:A2 9.24915 
4 *176:16 *593:B 11.6605 
5 *176:8 *596:A 9.24915 
*END

*D_NET *177 0.00157569
*CONN
*I *593:C I *D sky130_fd_sc_hd__nor3_1
*I *595:B I *D sky130_fd_sc_hd__nor2_1
*I *592:X O *D sky130_fd_sc_hd__and4_1
*CAP
1 *593:C 0
2 *595:B 0.00012083
3 *592:X 0.000224285
4 *177:10 0.000345114
5 *595:B *593:A 5.04829e-06
6 *595:B *594:A1 2.16355e-05
7 *595:B *595:A 0.0001195
8 *595:B *289:12 4.53418e-05
9 *177:10 *593:A 4.1102e-05
10 *177:10 *385:84 0.000164829
11 *592:B *177:10 0.000210531
12 *592:D *177:10 1.88563e-05
13 *593:B *595:B 6.08467e-05
14 *593:B *177:10 6.08467e-05
15 *176:8 *595:B 6.46815e-05
16 *176:16 *595:B 7.22413e-05
*RES
1 *592:X *177:10 16.2661 
2 *177:10 *595:B 22.7737 
3 *177:10 *593:C 9.24915 
*END

*D_NET *178 0.000442345
*CONN
*I *594:B1 I *D sky130_fd_sc_hd__a21o_1
*I *593:Y O *D sky130_fd_sc_hd__nor3_1
*CAP
1 *594:B1 0.000147386
2 *593:Y 0.000147386
3 *593:B *594:B1 0.000128716
4 *176:16 *594:B1 1.88563e-05
*RES
1 *593:Y *594:B1 22.4287 
*END

*D_NET *179 0.000292418
*CONN
*I *596:B I *D sky130_fd_sc_hd__nor2_1
*I *595:Y O *D sky130_fd_sc_hd__nor2_1
*CAP
1 *596:B 9.88749e-05
2 *595:Y 9.88749e-05
3 *596:B *237:12 1.36606e-05
4 *176:8 *596:B 8.1007e-05
*RES
1 *595:Y *596:B 21.3195 
*END

*D_NET *180 0.000568937
*CONN
*I *599:A2 I *D sky130_fd_sc_hd__a21oi_1
*I *597:Y O *D sky130_fd_sc_hd__xnor2_1
*CAP
1 *599:A2 0.000131061
2 *597:Y 0.000131061
3 *599:A2 *599:A1 1.50924e-05
4 *599:A2 *377:38 1.88422e-05
5 *476:A2 *599:A2 0.000104682
6 *597:B *599:A2 6.27782e-05
7 *600:S *599:A2 3.66868e-05
8 *92:29 *599:A2 6.87335e-05
*RES
1 *597:Y *599:A2 32.0228 
*END

*D_NET *181 0.000711787
*CONN
*I *599:B1 I *D sky130_fd_sc_hd__a21oi_1
*I *598:Y O *D sky130_fd_sc_hd__a21oi_1
*CAP
1 *599:B1 0.000134683
2 *598:Y 0.000134683
3 *599:B1 *468:B 0.000272361
4 *599:B1 *598:B1 4.4537e-05
5 *599:B1 *600:A1 0.000113295
6 *600:S *599:B1 1.22289e-05
*RES
1 *598:Y *599:B1 32.6523 
*END

*D_NET *182 0.000520647
*CONN
*I *600:A1 I *D sky130_fd_sc_hd__mux2_4
*I *599:Y O *D sky130_fd_sc_hd__a21oi_1
*CAP
1 *600:A1 8.78537e-05
2 *599:Y 8.78537e-05
3 *600:A1 *183:8 6.08467e-05
4 *599:B1 *600:A1 0.000113295
5 *600:A0 *600:A1 6.08467e-05
6 *600:S *600:A1 0.000109951
*RES
1 *599:Y *600:A1 30.6739 
*END

*D_NET *183 0.00631875
*CONN
*I *614:B1 I *D sky130_fd_sc_hd__a211o_1
*I *791:A I *D sky130_fd_sc_hd__buf_4
*I *606:A I *D sky130_fd_sc_hd__xnor2_1
*I *600:X O *D sky130_fd_sc_hd__mux2_4
*CAP
1 *614:B1 0.000208925
2 *791:A 0.000428528
3 *606:A 0.000392619
4 *600:X 0.000182837
5 *183:10 0.000896472
6 *183:8 0.000467087
7 *606:A *606:B 0.00046195
8 *606:A *613:A_N 6.27718e-05
9 *606:A *613:B 6.64392e-05
10 *606:A *614:A2 0.000278412
11 *614:B1 *607:A 0.000216458
12 *614:B1 *614:A2 0.000518199
13 *614:B1 *614:C1 0
14 *614:B1 *663:A 2.40846e-05
15 *614:B1 *190:10 0
16 *614:B1 *369:12 4.3116e-06
17 *791:A *619:A 9.8238e-05
18 *791:A *664:A 0.000549887
19 *791:A *361:10 4.89251e-05
20 *791:A *369:12 0.000359836
21 *183:8 *664:B 6.61278e-05
22 *183:8 *193:14 0.000682051
23 *183:10 *614:A2 0.000114659
24 *600:A0 *183:8 0.000129082
25 *600:A1 *183:8 6.08467e-05
*RES
1 *600:X *183:8 21.6824 
2 *183:8 *183:10 2.24725 
3 *183:10 *606:A 26.724 
4 *183:10 *791:A 27.2525 
5 *183:8 *614:B1 21.7325 
*END

*D_NET *184 0.00373652
*CONN
*I *797:A I *D sky130_fd_sc_hd__buf_4
*I *605:A I *D sky130_fd_sc_hd__nand2_2
*I *601:X O *D sky130_fd_sc_hd__or2_4
*CAP
1 *797:A 0
2 *605:A 0.000305588
3 *601:X 0.00105345
4 *184:12 0.00135904
5 *605:A *468:B 0
6 *605:A *661:A 9.25028e-05
7 *605:A *188:10 0
8 *605:A *364:12 0
9 *605:A *366:14 0.000149643
10 *605:A *367:12 9.34869e-05
11 *184:12 *443:A 3.55007e-05
12 *184:12 *474:A 6.23875e-05
13 *184:12 *643:B 2.75937e-05
14 *443:B *184:12 6.3657e-05
15 *474:D *184:12 0.000222149
16 *476:A1 *184:12 5.9545e-05
17 *601:A *184:12 6.50586e-05
18 *12:26 *184:12 0.000146927
*RES
1 *601:X *184:12 34.5921 
2 *184:12 *605:A 27.4514 
3 *184:12 *797:A 9.24915 
*END

*D_NET *185 0.000934376
*CONN
*I *604:B1 I *D sky130_fd_sc_hd__a221o_1
*I *602:Y O *D sky130_fd_sc_hd__xnor2_1
*CAP
1 *604:B1 0.000295902
2 *602:Y 0.000295902
3 *604:B1 *602:B 0.000107496
4 *604:B1 *604:A2 2.81378e-05
5 *604:B1 *604:B2 1.45198e-05
6 *604:B1 *187:6 0.000192418
*RES
1 *602:Y *604:B1 26.094 
*END

*D_NET *186 0.000871034
*CONN
*I *604:C1 I *D sky130_fd_sc_hd__a221o_1
*I *603:Y O *D sky130_fd_sc_hd__a21oi_1
*CAP
1 *604:C1 0.000159942
2 *603:Y 0.000159942
3 *604:C1 *603:B1 1.41976e-05
4 *604:C1 *294:22 8.95297e-05
5 *604:C1 *379:18 1.02267e-05
6 *604:C1 *389:32 7.88217e-05
7 *604:C1 *389:47 4.53418e-05
8 *604:C1 *391:18 0.00017561
9 *604:C1 *391:33 8.36586e-06
10 *85:22 *604:C1 0.000109421
11 *87:10 *604:C1 1.96344e-05
*RES
1 *603:Y *604:C1 33.4026 
*END

*D_NET *187 0.00794352
*CONN
*I *605:B I *D sky130_fd_sc_hd__nand2_2
*I *796:A I *D sky130_fd_sc_hd__buf_4
*I *604:X O *D sky130_fd_sc_hd__a221o_1
*CAP
1 *605:B 0.000126922
2 *796:A 0.000140027
3 *604:X 0
4 *187:6 0.00306956
5 *187:4 0.00280261
6 *605:B *188:10 5.78282e-05
7 *605:B *366:14 0
8 *187:6 *459:A 1.54577e-05
9 *187:6 *459:D 8.12984e-05
10 *187:6 *604:B2 2.68666e-06
11 *187:6 *646:CIN 0.000206718
12 *187:6 *648:A 3.44254e-06
13 *187:6 *652:B 0.000110458
14 *187:6 *653:CIN 1.96799e-05
15 *187:6 *669:A 4.47179e-05
16 *187:6 *669:B 6.37016e-05
17 *187:6 *366:14 9.46208e-05
18 *187:6 *394:16 0.000203756
19 *467:A3 *187:6 0.000495433
20 *604:B1 *187:6 0.000192418
21 *80:6 *187:6 0.00021218
*RES
1 *604:X *187:4 9.24915 
2 *187:4 *187:6 42.8733 
3 *187:6 *796:A 11.9257 
4 *187:6 *605:B 20.9116 
*END

*D_NET *188 0.00368816
*CONN
*I *614:C1 I *D sky130_fd_sc_hd__a211o_1
*I *606:B I *D sky130_fd_sc_hd__xnor2_1
*I *605:Y O *D sky130_fd_sc_hd__nand2_2
*CAP
1 *614:C1 0.000295459
2 *606:B 0.000223379
3 *605:Y 0.000435194
4 *188:10 0.000954032
5 *606:B *615:A1 6.46815e-05
6 *614:C1 *613:A_N 4.36627e-05
7 *614:C1 *613:B 0.00032481
8 *614:C1 *614:A1 0.000321503
9 *614:C1 *190:10 0.00013055
10 *614:C1 *193:18 1.21985e-05
11 *188:10 *613:A_N 9.33406e-06
12 *188:10 *613:B 5.23435e-05
13 *188:10 *619:A 0
14 *188:10 *621:A2 0
15 *188:10 *621:B1 0
16 *188:10 *661:A 6.27718e-05
17 *188:10 *794:A 0
18 *188:10 *199:14 6.42739e-05
19 *188:10 *364:12 0.00017419
20 *188:10 *366:14 0
21 *605:A *188:10 0
22 *605:B *188:10 5.78282e-05
23 *606:A *606:B 0.00046195
24 *614:B1 *614:C1 0
*RES
1 *605:Y *188:10 25.8553 
2 *188:10 *606:B 20.0427 
3 *188:10 *614:C1 24.2037 
*END

*D_NET *189 0.000473371
*CONN
*I *615:A1 I *D sky130_fd_sc_hd__o21ai_1
*I *606:Y O *D sky130_fd_sc_hd__xnor2_1
*CAP
1 *615:A1 0.000127535
2 *606:Y 0.000127535
3 *615:A1 *615:B1 1.18084e-05
4 *615:A1 *794:A 0.000141811
5 *606:B *615:A1 6.46815e-05
*RES
1 *606:Y *615:A1 30.8842 
*END

*D_NET *190 0.00171085
*CONN
*I *845:A I *D sky130_fd_sc_hd__buf_4
*I *613:B I *D sky130_fd_sc_hd__nand2b_4
*I *607:Y O *D sky130_fd_sc_hd__inv_2
*CAP
1 *845:A 1.39384e-05
2 *613:B 0.000279817
3 *607:Y 0.000173568
4 *190:10 0.000467324
5 *845:A *795:A 6.3657e-05
6 *845:A *193:14 2.57986e-05
7 *190:10 *614:A2 0.0001126
8 *606:A *613:B 6.64392e-05
9 *614:B1 *190:10 0
10 *614:C1 *613:B 0.00032481
11 *614:C1 *190:10 0.00013055
12 *188:10 *613:B 5.23435e-05
*RES
1 *607:Y *190:10 17.6896 
2 *190:10 *613:B 22.0204 
3 *190:10 *845:A 14.4725 
*END

*D_NET *191 0.0036175
*CONN
*I *801:A I *D sky130_fd_sc_hd__buf_4
*I *609:A1 I *D sky130_fd_sc_hd__a21oi_2
*I *608:Y O *D sky130_fd_sc_hd__nand4_4
*CAP
1 *801:A 0.000436116
2 *609:A1 0.000533719
3 *608:Y 0.000121211
4 *191:8 0.00109105
5 *609:A1 *584:B2 3.67708e-05
6 *609:A1 *385:8 1.77537e-06
7 *609:A1 *385:23 5.68225e-06
8 *801:A *584:B2 4.33979e-05
9 *801:A *610:A2 5.04829e-06
10 *801:A *387:77 0.00010823
11 *191:8 *584:A1 0.000172652
12 *191:8 *584:A2 6.08467e-05
13 *191:8 *584:B1 2.57986e-05
14 *191:8 *387:31 0.000497858
15 *576:B1 *801:A 7.01935e-06
16 *585:A *801:A 2.652e-05
17 *591:A2 *801:A 5.03545e-06
18 *609:A2 *609:A1 0.000168547
19 *810:A *609:A1 0.000164121
20 *168:10 *609:A1 6.25413e-05
21 *168:10 *801:A 2.47663e-05
22 *169:8 *191:8 1.88014e-05
*RES
1 *608:Y *191:8 19.464 
2 *191:8 *609:A1 27.6235 
3 *191:8 *801:A 24.6096 
*END

*D_NET *192 0.00609615
*CONN
*I *610:B1 I *D sky130_fd_sc_hd__o221ai_2
*I *609:Y O *D sky130_fd_sc_hd__a21oi_2
*CAP
1 *610:B1 0.0027622
2 *609:Y 0.0027622
3 *610:B1 *462:B 1.61631e-05
4 *610:B1 *295:24 0.000161234
5 *610:B1 *387:77 1.91391e-05
6 *610:B1 *391:33 0.000111636
7 *609:B1 *610:B1 0.00013997
8 *610:B2 *610:B1 2.27135e-05
9 *13:18 *610:B1 2.34061e-05
10 *13:75 *610:B1 7.74848e-05
*RES
1 *609:Y *610:B1 43.5118 
*END

*D_NET *193 0.00759987
*CONN
*I *844:A I *D sky130_fd_sc_hd__buf_4
*I *612:B I *D sky130_fd_sc_hd__nand2_1
*I *613:A_N I *D sky130_fd_sc_hd__nand2b_4
*I *610:Y O *D sky130_fd_sc_hd__o221ai_2
*CAP
1 *844:A 0.000105669
2 *612:B 0
3 *613:A_N 0.000173353
4 *610:Y 0.000885286
5 *193:18 0.000240104
6 *193:14 0.00140739
7 *193:12 0.00212025
8 *613:A_N *615:B1 3.55179e-05
9 *844:A *795:A 0.000112694
10 *844:A *414:6 3.48273e-05
11 *193:12 *469:B 0
12 *193:14 *664:B 3.17849e-05
13 *193:14 *795:A 6.29273e-05
14 *193:14 *377:10 6.08467e-05
15 *193:14 *396:10 5.13447e-05
16 *193:18 *614:A1 2.8322e-05
17 *193:18 *615:B1 0.000106293
18 *443:B *193:12 5.14448e-05
19 *606:A *613:A_N 6.27718e-05
20 *614:C1 *613:A_N 4.36627e-05
21 *614:C1 *193:18 1.21985e-05
22 *826:A *193:14 2.16355e-05
23 *845:A *193:14 2.57986e-05
24 *9:14 *193:12 0.000311261
25 *10:24 *193:12 3.45747e-05
26 *11:32 *193:12 0.000850064
27 *71:13 *193:12 3.84663e-05
28 *183:8 *193:14 0.000682051
29 *188:10 *613:A_N 9.33406e-06
*RES
1 *610:Y *193:12 34.6668 
2 *193:12 *193:14 19.0253 
3 *193:14 *193:18 6.74725 
4 *193:18 *613:A_N 18.3808 
5 *193:18 *612:B 13.7491 
6 *193:14 *844:A 12.6009 
*END

*D_NET *194 0.000496349
*CONN
*I *615:A2 I *D sky130_fd_sc_hd__o21ai_1
*I *611:Y O *D sky130_fd_sc_hd__nand2_1
*CAP
1 *615:A2 0.000146812
2 *611:Y 0.000146812
3 *615:A2 *619:A 0.000202726
*RES
1 *611:Y *615:A2 20.8855 
*END

*D_NET *195 0.00084188
*CONN
*I *614:A1 I *D sky130_fd_sc_hd__a211o_1
*I *612:Y O *D sky130_fd_sc_hd__nand2_1
*CAP
1 *614:A1 0.000202065
2 *612:Y 0.000202065
3 *614:A1 *614:A2 2.65667e-05
4 *614:A1 *615:B1 3.47923e-05
5 *614:A1 *663:A 2.65667e-05
6 *614:C1 *614:A1 0.000321503
7 *193:18 *614:A1 2.8322e-05
*RES
1 *612:Y *614:A1 34.2062 
*END

*D_NET *196 0.00258738
*CONN
*I *614:A2 I *D sky130_fd_sc_hd__a211o_1
*I *613:Y O *D sky130_fd_sc_hd__nand2b_4
*CAP
1 *614:A2 0.000684893
2 *613:Y 0.000684893
3 *614:A2 *607:A 1.65872e-05
4 *614:A2 *663:A 1.76763e-05
5 *614:A2 *369:12 0.000132895
6 *606:A *614:A2 0.000278412
7 *614:A1 *614:A2 2.65667e-05
8 *614:B1 *614:A2 0.000518199
9 *183:10 *614:A2 0.000114659
10 *190:10 *614:A2 0.0001126
*RES
1 *613:Y *614:A2 46.1742 
*END

*D_NET *197 0.000800874
*CONN
*I *615:B1 I *D sky130_fd_sc_hd__o21ai_1
*I *614:X O *D sky130_fd_sc_hd__a211o_1
*CAP
1 *615:B1 0.000302991
2 *614:X 0.000302991
3 *615:B1 *663:A 6.48058e-06
4 *615:B1 *794:A 0
5 *615:B1 *310:12 0
6 *613:A_N *615:B1 3.55179e-05
7 *614:A1 *615:B1 3.47923e-05
8 *615:A1 *615:B1 1.18084e-05
9 *193:18 *615:B1 0.000106293
*RES
1 *614:X *615:B1 34.2062 
*END

*D_NET *198 0.000778449
*CONN
*I *618:A2 I *D sky130_fd_sc_hd__o21ai_1
*I *619:C I *D sky130_fd_sc_hd__and3_1
*I *616:Y O *D sky130_fd_sc_hd__a21oi_2
*CAP
1 *618:A2 0.000115254
2 *619:C 7.898e-05
3 *616:Y 0.000109933
4 *198:8 0.000304167
5 *618:A2 *620:B 6.46815e-05
6 *618:A2 *621:A2 0.000101133
7 *618:A2 *661:B 0
8 *618:A2 *199:14 0
9 *198:8 *616:A1 4.30017e-06
10 *198:8 *616:A2 0
*RES
1 *616:Y *198:8 11.6605 
2 *198:8 *619:C 10.8888 
3 *198:8 *618:A2 21.635 
*END

*D_NET *199 0.0020602
*CONN
*I *618:B1 I *D sky130_fd_sc_hd__o21ai_1
*I *620:B I *D sky130_fd_sc_hd__nor2_1
*I *617:Y O *D sky130_fd_sc_hd__nand3_1
*CAP
1 *618:B1 0
2 *620:B 0.00021472
3 *617:Y 0.00031518
4 *199:14 0.0005299
5 *620:B *618:A1 0.000294783
6 *620:B *661:A 9.50664e-05
7 *620:B *661:B 5.37199e-06
8 *199:14 *616:A1 1.99543e-06
9 *199:14 *616:A2 0.000170484
10 *199:14 *621:A2 2.12377e-05
11 *199:14 *661:A 6.91907e-05
12 *199:14 *661:B 0
13 *618:A2 *620:B 6.46815e-05
14 *618:A2 *199:14 0
15 *779:A *620:B 8.62625e-06
16 *43:10 *620:B 0.000204693
17 *188:10 *199:14 6.42739e-05
*RES
1 *617:Y *199:14 25.6861 
2 *199:14 *620:B 26.9024 
3 *199:14 *618:B1 9.24915 
*END

*D_NET *200 0.000675584
*CONN
*I *621:A2 I *D sky130_fd_sc_hd__a211oi_2
*I *618:Y O *D sky130_fd_sc_hd__o21ai_1
*CAP
1 *621:A2 0.000240236
2 *618:Y 0.000240236
3 *621:A2 *619:A 0
4 *621:A2 *621:B1 4.61732e-05
5 *621:A2 *794:A 2.65667e-05
6 *618:A2 *621:A2 0.000101133
7 *188:10 *621:A2 0
8 *199:14 *621:A2 2.12377e-05
*RES
1 *618:Y *621:A2 33.9544 
*END

*D_NET *201 0.000635495
*CONN
*I *621:B1 I *D sky130_fd_sc_hd__a211oi_2
*I *619:X O *D sky130_fd_sc_hd__and3_1
*CAP
1 *621:B1 0.00024332
2 *619:X 0.00024332
3 *621:B1 *619:A 3.25751e-05
4 *621:B1 *621:C1 5.04829e-06
5 *621:B1 *794:A 6.50586e-05
6 *621:A2 *621:B1 4.61732e-05
7 *188:10 *621:B1 0
*RES
1 *619:X *621:B1 33.242 
*END

*D_NET *202 0.000556389
*CONN
*I *621:C1 I *D sky130_fd_sc_hd__a211oi_2
*I *620:Y O *D sky130_fd_sc_hd__nor2_1
*CAP
1 *621:C1 0.000224329
2 *620:Y 0.000224329
3 *621:C1 *361:10 6.28484e-05
4 *621:C1 *361:12 8.62625e-06
5 *621:B1 *621:C1 5.04829e-06
6 *779:A *621:C1 3.12075e-05
*RES
1 *620:Y *621:C1 31.9051 
*END

*D_NET *203 0.000444396
*CONN
*I *629:A I *D sky130_fd_sc_hd__nor2_1
*I *628:Y O *D sky130_fd_sc_hd__o21ai_0
*CAP
1 *629:A 0.000197057
2 *628:Y 0.000197057
3 *628:A2 *629:A 4.23338e-05
4 *629:B *629:A 7.94909e-06
*RES
1 *628:Y *629:A 21.8741 
*END

*D_NET *204 0.00301415
*CONN
*I *630:A I *D sky130_fd_sc_hd__xnor2_1
*I *629:Y O *D sky130_fd_sc_hd__nor2_1
*CAP
1 *630:A 0
2 *629:Y 0.000752557
3 *204:14 0.000752557
4 *204:14 *420:A 0.000306577
5 *204:14 *339:16 0.000565799
6 *482:A *204:14 0.000234999
7 *484:C *204:14 0.000168829
8 *488:B *204:14 2.41726e-05
9 *488:C *204:14 6.27782e-05
10 *489:B1 *204:14 3.86207e-06
11 *490:A *204:14 8.44848e-05
12 *629:B *204:14 1.36606e-05
13 *754:A *204:14 4.38769e-05
*RES
1 *629:Y *204:14 42.1596 
2 *204:14 *630:A 9.24915 
*END

*D_NET *205 0.000566381
*CONN
*I *632:A1 I *D sky130_fd_sc_hd__a21oi_1
*I *631:Y O *D sky130_fd_sc_hd__o21bai_1
*CAP
1 *632:A1 0.000220688
2 *631:Y 0.000220688
3 *632:A1 *632:A2 6.46815e-05
4 *632:A1 *353:14 6.03223e-05
*RES
1 *631:Y *632:A1 21.9947 
*END

*D_NET *206 0.00050972
*CONN
*I *633:A I *D sky130_fd_sc_hd__xnor2_1
*I *632:Y O *D sky130_fd_sc_hd__a21oi_1
*CAP
1 *633:A 8.2708e-05
2 *632:Y 8.2708e-05
3 *633:A *425:A2 0.000141728
4 *633:A *633:B 6.08467e-05
5 *425:A1 *633:A 0.000141728
*RES
1 *632:Y *633:A 30.8842 
*END

*D_NET *207 0.000769892
*CONN
*I *659:B I *D sky130_fd_sc_hd__ha_4
*I *648:COUT O *D sky130_fd_sc_hd__fa_2
*CAP
1 *659:B 0.000334343
2 *648:COUT 0.000334343
3 *659:B *648:B 5.42139e-05
4 *659:B *675:A 4.69932e-05
5 *485:A2 *659:B 0
*RES
1 *648:COUT *659:B 33.6572 
*END

*D_NET *208 0.00322279
*CONN
*I *671:A I *D sky130_fd_sc_hd__ha_1
*I *647:COUT O *D sky130_fd_sc_hd__fa_1
*CAP
1 *671:A 0
2 *647:COUT 0.000708657
3 *208:14 0.000708657
4 *208:14 *441:A 0.000413877
5 *208:14 *441:B 4.58907e-05
6 *208:14 *638:A 0
7 *208:14 *647:B 6.36477e-05
8 *208:14 *648:CIN 0.000871755
9 *208:14 *652:CIN 7.15593e-05
10 *208:14 *660:A 0.000117376
11 *208:14 *670:A 9.92736e-05
12 *208:14 *670:B 3.83021e-05
13 *208:14 *671:B 5.4409e-05
14 *208:14 *675:B 2.93863e-05
15 *208:14 *383:44 0
*RES
1 *647:COUT *208:14 43.4278 
2 *208:14 *671:A 9.24915 
*END

*D_NET *209 0.000908892
*CONN
*I *660:A I *D sky130_fd_sc_hd__ha_1
*I *671:COUT O *D sky130_fd_sc_hd__ha_1
*CAP
1 *660:A 0.000273076
2 *671:COUT 0.000273076
3 *660:A *671:B 0.000118634
4 *41:10 *660:A 1.43698e-05
5 *54:31 *660:A 0.000112361
6 *208:14 *660:A 0.000117376
*RES
1 *671:COUT *660:A 26.9861 
*END

*D_NET *210 0.0015004
*CONN
*I *673:A I *D sky130_fd_sc_hd__ha_1
*I *670:COUT O *D sky130_fd_sc_hd__ha_1
*CAP
1 *673:A 0.000607439
2 *670:COUT 0.000607439
3 *673:A *670:B 0.000103788
4 *440:A *673:A 4.89392e-05
5 *8:14 *673:A 0.000132795
*RES
1 *670:COUT *673:A 42.2791 
*END

*D_NET *211 0.00178217
*CONN
*I *666:A I *D sky130_fd_sc_hd__ha_4
*I *673:COUT O *D sky130_fd_sc_hd__ha_1
*CAP
1 *666:A 0.000267186
2 *673:COUT 0.000267186
3 *666:A *672:A 0
4 *666:A *751:A 0.000564522
5 *440:A *666:A 0.00068327
*RES
1 *673:COUT *666:A 39.7116 
*END

*D_NET *212 0.00189892
*CONN
*I *650:B I *D sky130_fd_sc_hd__fa_1
*I *672:COUT O *D sky130_fd_sc_hd__ha_1
*CAP
1 *650:B 0.000424257
2 *672:COUT 0.000424257
3 *650:B *433:B 0
4 *650:B *650:A 5.73392e-05
5 *650:B *650:CIN 0.00016502
6 *650:B *651:CIN 0.000304791
7 *650:B *666:B 0.000183721
8 *650:B *672:B 0.000215291
9 *650:B *751:A 0.000124246
10 *444:B *650:B 0
11 *820:A *650:B 0
*RES
1 *672:COUT *650:B 30.5875 
*END

*D_NET *213 0.000698991
*CONN
*I *651:A I *D sky130_fd_sc_hd__fa_1
*I *650:COUT O *D sky130_fd_sc_hd__fa_1
*CAP
1 *651:A 0.000143358
2 *650:COUT 0.000143358
3 *530:B *651:A 6.00052e-05
4 *757:A *651:A 0
5 *53:10 *651:A 0.000352268
*RES
1 *650:COUT *651:A 24.2337 
*END

*D_NET *214 0.000274148
*CONN
*I *651:B I *D sky130_fd_sc_hd__fa_1
*I *649:COUT O *D sky130_fd_sc_hd__fa_1
*CAP
1 *651:B 4.22524e-05
2 *649:COUT 4.22524e-05
3 *54:10 *651:B 0.000130777
4 *110:12 *651:B 5.88662e-05
*RES
1 *649:COUT *651:B 20.4964 
*END

*D_NET *215 0.00107624
*CONN
*I *490:B I *D sky130_fd_sc_hd__xor2_1
*I *651:COUT O *D sky130_fd_sc_hd__fa_1
*CAP
1 *490:B 0.000337223
2 *651:COUT 0.000337223
3 *490:B *785:A 0
4 *530:B *490:B 0.000336722
5 *758:A *490:B 6.50727e-05
*RES
1 *651:COUT *490:B 36.1784 
*END

*D_NET *216 0.000843792
*CONN
*I *647:A I *D sky130_fd_sc_hd__fa_1
*I *645:COUT O *D sky130_fd_sc_hd__fa_1
*CAP
1 *647:A 0.000307899
2 *645:COUT 0.000307899
3 *647:A *645:A 0
4 *647:A *648:CIN 1.31657e-05
5 *467:A3 *647:A 9.49579e-05
6 *467:B1 *647:A 9.99386e-06
7 *467:C1 *647:A 4.90295e-05
8 *13:24 *647:A 0
9 *85:22 *647:A 6.08467e-05
*RES
1 *645:COUT *647:A 25.3443 
*END

*D_NET *217 0.00106285
*CONN
*I *636:A I *D sky130_fd_sc_hd__fa_1
*I *644:COUT O *D sky130_fd_sc_hd__fa_1
*CAP
1 *636:A 0.000264586
2 *644:COUT 0.000264586
3 *636:A *635:B 2.02035e-05
4 *636:A *636:CIN 0.000190811
5 *636:A *647:CIN 2.9157e-05
6 *636:A *284:20 0
7 *457:B *636:A 8.2476e-06
8 *13:30 *636:A 0.000285261
*RES
1 *644:COUT *636:A 27.1404 
*END

*D_NET *218 0.00104318
*CONN
*I *648:A I *D sky130_fd_sc_hd__fa_2
*I *646:COUT O *D sky130_fd_sc_hd__fa_1
*CAP
1 *648:A 0.000340216
2 *646:COUT 0.000340216
3 *648:A *638:A 0.000319194
4 *648:A *652:CIN 0
5 *648:A *654:B 4.01117e-05
6 *187:6 *648:A 3.44254e-06
*RES
1 *646:COUT *648:A 27.8638 
*END

*D_NET *219 0.0017057
*CONN
*I *670:A I *D sky130_fd_sc_hd__ha_1
*I *636:COUT O *D sky130_fd_sc_hd__fa_1
*CAP
1 *670:A 0.000665006
2 *636:COUT 0.000665006
3 *670:A *670:B 6.27718e-05
4 *670:A *384:10 3.39204e-05
5 *670:A *384:21 7.74044e-06
6 *519:A *670:A 4.43331e-05
7 *5:22 *670:A 0.000105182
8 *16:26 *670:A 2.24708e-05
9 *208:14 *670:A 9.92736e-05
*RES
1 *636:COUT *670:A 42.9969 
*END

*D_NET *220 0.00282459
*CONN
*I *638:A I *D sky130_fd_sc_hd__fa_1
*I *635:COUT O *D sky130_fd_sc_hd__fa_1
*CAP
1 *638:A 0.00114797
2 *635:COUT 0.00114797
3 *638:A *652:CIN 0
4 *638:A *654:A 4.19452e-05
5 *638:A *654:CIN 0.000151427
6 *638:A *675:A 0
7 *638:A *314:6 1.60782e-05
8 *648:A *638:A 0.000319194
9 *208:14 *638:A 0
*RES
1 *635:COUT *638:A 42.133 
*END

*D_NET *221 0.000798757
*CONN
*I *672:A I *D sky130_fd_sc_hd__ha_1
*I *638:COUT O *D sky130_fd_sc_hd__fa_1
*CAP
1 *672:A 0.000151268
2 *638:COUT 0.000151268
3 *672:A *672:B 0.000273777
4 *672:A *751:A 0.00022067
5 *666:A *672:A 0
6 *814:A *672:A 0
7 *820:A *672:A 1.77537e-06
8 *8:14 *672:A 0
*RES
1 *638:COUT *672:A 33.1026 
*END

*D_NET *222 0.000945922
*CONN
*I *667:A I *D sky130_fd_sc_hd__ha_1
*I *637:COUT O *D sky130_fd_sc_hd__fa_1
*CAP
1 *667:A 0.000263029
2 *637:COUT 0.000263029
3 *667:A *637:A 1.5254e-05
4 *667:A *637:CIN 7.28157e-05
5 *667:A *639:A 7.86847e-05
6 *667:A *649:A 5.28741e-05
7 *667:A *667:B 0
8 *505:A *667:A 0.000200236
*RES
1 *637:COUT *667:A 35.4548 
*END

*D_NET *223 0.00323522
*CONN
*I *649:A I *D sky130_fd_sc_hd__fa_1
*I *667:COUT O *D sky130_fd_sc_hd__ha_1
*CAP
1 *649:A 0.000488007
2 *667:COUT 0.000488007
3 *649:A *435:B 6.75138e-05
4 *649:A *444:A 0.000169862
5 *649:A *649:B 0.000613107
6 *649:A *649:CIN 0.000149268
7 *649:A *667:B 6.50727e-05
8 *649:A *672:B 0.000634105
9 *649:A *383:24 0.00011818
10 *649:A *383:35 0.000171273
11 *649:A *390:6 0.000217951
12 *667:A *649:A 5.28741e-05
*RES
1 *667:COUT *649:A 30.2879 
*END

*D_NET *224 0.00232324
*CONN
*I *650:A I *D sky130_fd_sc_hd__fa_1
*I *639:COUT O *D sky130_fd_sc_hd__fa_1
*CAP
1 *650:A 0.000549077
2 *639:COUT 0.000549077
3 *650:A *433:A 0.000257892
4 *650:A *435:B 0
5 *650:A *639:CIN 0
6 *650:A *651:CIN 7.26465e-05
7 *650:A *666:B 0.000154145
8 *650:A *667:B 0
9 *650:A *383:24 3.31733e-05
10 *437:A *650:A 2.42138e-05
11 *650:B *650:A 5.73392e-05
12 *7:14 *650:A 0.000377259
13 *7:37 *650:A 0.000248423
*RES
1 *639:COUT *650:A 35.8551 
*END

*D_NET *225 0.00188265
*CONN
*I *563:C1 I *D sky130_fd_sc_hd__a211oi_2
*I *567:C1 I *D sky130_fd_sc_hd__a211o_1
*I *570:C1 I *D sky130_fd_sc_hd__o211ai_1
*I *640:COUT O *D sky130_fd_sc_hd__fa_2
*CAP
1 *563:C1 0
2 *567:C1 2.07309e-05
3 *570:C1 0.000289581
4 *640:COUT 0.000186161
5 *225:16 0.000426748
6 *225:10 0.000302597
7 *225:10 *288:14 3.03926e-05
8 *563:A1 *225:10 2.1667e-05
9 *563:A1 *225:16 0.000195643
10 *563:B1 *225:10 1.03594e-05
11 *563:B1 *225:16 0.000184918
12 *567:A2 *570:C1 1.80122e-05
13 *567:A2 *225:16 4.31703e-05
14 *570:A2 *570:C1 1.83216e-05
15 *11:32 *225:10 5.64028e-05
16 *141:21 *225:16 3.67708e-05
17 *149:10 *225:16 3.31882e-05
18 *157:6 *570:C1 7.98425e-06
*RES
1 *640:COUT *225:10 18.6595 
2 *225:10 *225:16 9.68626 
3 *225:16 *570:C1 15.0363 
4 *225:16 *567:C1 9.82786 
5 *225:10 *563:C1 13.7491 
*END

*D_NET *226 0.00256218
*CONN
*I *799:A I *D sky130_fd_sc_hd__buf_4
*I *607:A I *D sky130_fd_sc_hd__inv_2
*I *641:COUT O *D sky130_fd_sc_hd__fa_2
*CAP
1 *799:A 0
2 *607:A 4.01089e-05
3 *641:COUT 0.000602402
4 *226:16 0.000642511
5 *607:A *663:A 0.0001237
6 *226:16 *468:B 5.25444e-05
7 *226:16 *598:B1 9.46343e-05
8 *226:16 *658:A 0.000469792
9 *226:16 *663:A 0.000117208
10 *226:16 *265:18 0
11 *552:A2 *226:16 4.75557e-05
12 *598:A1 *226:16 5.04829e-06
13 *598:A2 *226:16 0
14 *614:A2 *607:A 1.65872e-05
15 *614:B1 *607:A 0.000216458
16 *140:18 *226:16 0.000133626
*RES
1 *641:COUT *226:16 36.2308 
2 *226:16 *607:A 12.191 
3 *226:16 *799:A 9.24915 
*END

*D_NET *227 0.00090665
*CONN
*I *669:A I *D sky130_fd_sc_hd__ha_4
*I *467:X O *D sky130_fd_sc_hd__o311a_1
*CAP
1 *669:A 0.000279816
2 *467:X 0.000279816
3 *669:A *635:A 0
4 *669:A *636:CIN 2.91831e-05
5 *669:A *669:B 0.000110458
6 *460:A *669:A 7.40084e-05
7 *467:A2 *669:A 1.40593e-05
8 *601:B *669:A 7.45923e-05
9 *187:6 *669:A 4.47179e-05
*RES
1 *467:X *669:A 34.7608 
*END

*D_NET *228 0.000738786
*CONN
*I *652:A I *D sky130_fd_sc_hd__fa_1
*I *476:Y O *D sky130_fd_sc_hd__a211oi_1
*CAP
1 *652:A 0.000291285
2 *476:Y 0.000291285
3 *652:A *443:A 0
4 *652:A *468:B 0
5 *652:A *646:A 5.88662e-05
6 *652:A *383:55 0
7 *474:D *652:A 1.00981e-05
8 *476:B1 *652:A 6.92705e-05
9 *88:10 *652:A 1.79807e-05
*RES
1 *476:Y *652:A 25.0964 
*END

*D_NET *229 0.00178082
*CONN
*I *646:B I *D sky130_fd_sc_hd__fa_1
*I *668:COUT O *D sky130_fd_sc_hd__ha_2
*CAP
1 *646:B 0.000293594
2 *668:COUT 0.000293594
3 *646:B *654:A 0.000193492
4 *646:B *384:21 0.000360687
5 *646:B *384:30 0.000391845
6 *5:16 *646:B 0.000236884
7 *5:22 *646:B 1.07248e-05
*RES
1 *668:COUT *646:B 31.7082 
*END

*D_NET *230 0.00382086
*CONN
*I *653:A I *D sky130_fd_sc_hd__fa_2
*I *669:COUT O *D sky130_fd_sc_hd__ha_4
*CAP
1 *653:A 0.000578494
2 *669:COUT 0.000578494
3 *653:A *467:A1 0.000107496
4 *653:A *499:A 8.65358e-05
5 *653:A *645:A 0.000191279
6 *653:A *653:B 0.00134697
7 *653:A *653:CIN 3.67474e-06
8 *653:A *295:24 0.000290178
9 *653:A *385:23 2.83033e-05
10 *653:A *407:6 0.000174699
11 *467:B1 *653:A 0.000118166
12 *467:C1 *653:A 0.000105804
13 *601:A *653:A 3.17869e-05
14 *837:A *653:A 6.08467e-05
15 *13:18 *653:A 3.14978e-05
16 *13:22 *653:A 8.66302e-05
*RES
1 *669:COUT *653:A 44.616 
*END

*D_NET *231 0.00205404
*CONN
*I *645:A I *D sky130_fd_sc_hd__fa_1
*I *642:COUT O *D sky130_fd_sc_hd__fa_1
*CAP
1 *645:A 0.000484596
2 *642:COUT 0.000484596
3 *645:A *644:B 9.0722e-05
4 *645:A *645:B 0.000122708
5 *645:A *385:8 7.84205e-05
6 *645:A *385:23 3.87434e-05
7 *467:C1 *645:A 7.56859e-06
8 *525:A *645:A 0.000492635
9 *525:B *645:A 0
10 *647:A *645:A 0
11 *653:A *645:A 0.000191279
12 *13:24 *645:A 0
13 *15:25 *645:A 6.27718e-05
*RES
1 *642:COUT *645:A 34.9231 
*END

*D_NET *232 0.0013026
*CONN
*I *654:A I *D sky130_fd_sc_hd__fa_2
*I *643:COUT O *D sky130_fd_sc_hd__fa_1
*CAP
1 *654:A 0.000273568
2 *643:COUT 0.000273568
3 *654:A *652:B 6.27782e-05
4 *654:A *654:CIN 4.54155e-05
5 *654:A *314:6 7.27004e-05
6 *654:A *384:30 3.78664e-05
7 *638:A *654:A 4.19452e-05
8 *646:B *654:A 0.000193492
9 *5:16 *654:A 0.000301269
*RES
1 *643:COUT *654:A 27.9538 
*END

*D_NET *233 0.00291756
*CONN
*I *658:A I *D sky130_fd_sc_hd__ha_4
*I *674:COUT O *D sky130_fd_sc_hd__ha_1
*CAP
1 *658:A 0.000576683
2 *674:COUT 0.000576683
3 *658:A *468:B 7.78812e-05
4 *658:A *658:B 0.000634873
5 *658:A *674:A 1.19721e-05
6 *658:A *245:6 6.12686e-06
7 *658:A *382:99 0.000374884
8 *658:A *382:101 4.13313e-05
9 *140:18 *658:A 0.000147335
10 *226:16 *658:A 0.000469792
*RES
1 *674:COUT *658:A 48.3682 
*END

*D_NET *234 0.0051233
*CONN
*I *662:B I *D sky130_fd_sc_hd__ha_2
*I *546:Y O *D sky130_fd_sc_hd__a21oi_1
*CAP
1 *662:B 5.14248e-05
2 *546:Y 0.00183597
3 *234:14 0.0018874
4 *234:14 *498:A 6.08467e-05
5 *234:14 *534:A 0
6 *234:14 *550:A1 3.86207e-06
7 *234:14 *662:A 0.000374729
8 *234:14 *289:12 8.96342e-05
9 *234:14 *307:22 8.05819e-05
10 *234:14 *309:18 6.06023e-06
11 *234:14 *382:32 0
12 *234:14 *388:109 6.14051e-05
13 *234:14 *416:22 6.08467e-05
14 *234:14 *416:26 5.34588e-05
15 *541:B *234:14 5.64209e-05
16 *542:A2 *234:14 0
17 *546:A1 *234:14 4.96202e-06
18 *546:B1 *234:14 2.01653e-05
19 *551:A *234:14 0.000154145
20 *552:A1 *234:14 3.99086e-06
21 *571:C *234:14 1.58551e-05
22 *573:B *234:14 0.000270202
23 *573:C *234:14 9.99867e-06
24 *45:8 *234:14 1.06115e-05
25 *125:18 *234:14 1.07248e-05
*RES
1 *546:Y *234:14 49.9437 
2 *234:14 *662:B 10.6477 
*END

*D_NET *235 0.00113932
*CONN
*I *656:A I *D sky130_fd_sc_hd__ha_4
*I *553:X O *D sky130_fd_sc_hd__a31o_2
*CAP
1 *656:A 0.000229375
2 *553:X 0.000229375
3 *656:A *309:18 0.000464888
4 *35:10 *656:A 0.000215683
*RES
1 *553:X *656:A 35.321 
*END

*D_NET *236 0.00472145
*CONN
*I *663:A I *D sky130_fd_sc_hd__ha_1
*I *577:Y O *D sky130_fd_sc_hd__a211oi_2
*CAP
1 *663:A 0.00178039
2 *577:Y 0.00178039
3 *663:A *470:B 1.65872e-05
4 *663:A *598:B1 2.65667e-05
5 *663:A *384:43 2.16355e-05
6 *577:C1 *663:A 1.43848e-05
7 *598:A1 *663:A 0.000472818
8 *607:A *663:A 0.0001237
9 *614:A1 *663:A 2.65667e-05
10 *614:A2 *663:A 1.76763e-05
11 *614:B1 *663:A 2.40846e-05
12 *615:B1 *663:A 6.48058e-06
13 *9:14 *663:A 2.77625e-06
14 *11:32 *663:A 0.000173698
15 *47:6 *663:A 5.56461e-05
16 *90:17 *663:A 6.08467e-05
17 *226:16 *663:A 0.000117208
*RES
1 *577:Y *663:A 48.6639 
*END

*D_NET *237 0.00609378
*CONN
*I *664:B I *D sky130_fd_sc_hd__ha_1
*I *596:Y O *D sky130_fd_sc_hd__nor2_1
*CAP
1 *664:B 0.000664042
2 *596:Y 0.000188454
3 *237:12 0.000852496
4 *664:B *611:B 0.000167076
5 *664:B *795:A 0.000397418
6 *664:B *310:12 0.00241902
7 *664:B *396:10 0.000393863
8 *664:B *414:6 0.000220183
9 *237:12 *289:12 0
10 *596:B *237:12 1.36606e-05
11 *600:A0 *664:B 0.000413252
12 *9:14 *237:12 0.000164653
13 *49:8 *664:B 6.86583e-05
14 *176:16 *237:12 3.30938e-05
15 *183:8 *664:B 6.61278e-05
16 *193:14 *664:B 3.17849e-05
*RES
1 *596:Y *237:12 22.6049 
2 *237:12 *664:B 40.4757 
*END

*D_NET *238 0.00142706
*CONN
*I *661:B I *D sky130_fd_sc_hd__ha_4
*I *621:Y O *D sky130_fd_sc_hd__a211oi_2
*CAP
1 *661:B 0.000321982
2 *621:Y 0.000321982
3 *661:B *618:A1 0.000179286
4 *661:B *619:A 0.000273292
5 *661:B *661:A 5.13058e-05
6 *661:B *361:10 0.00017419
7 *661:B *361:12 8.52652e-05
8 *618:A2 *661:B 0
9 *620:B *661:B 5.37199e-06
10 *43:10 *661:B 1.43832e-05
11 *199:14 *661:B 0
*RES
1 *621:Y *661:B 39.1892 
*END

*D_NET *239 0.000681477
*CONN
*I *654:B I *D sky130_fd_sc_hd__fa_2
*I *652:COUT O *D sky130_fd_sc_hd__fa_1
*CAP
1 *654:B 0.000289297
2 *652:COUT 0.000289297
3 *654:B *661:A 6.27718e-05
4 *648:A *654:B 4.01117e-05
*RES
1 *652:COUT *654:B 24.9571 
*END

*D_NET *240 0.00126313
*CONN
*I *675:A I *D sky130_fd_sc_hd__ha_4
*I *654:COUT O *D sky130_fd_sc_hd__fa_2
*CAP
1 *675:A 0.000308182
2 *654:COUT 0.000308182
3 *675:A *648:B 0.000175918
4 *675:A *675:B 0.000423859
5 *638:A *675:A 0
6 *659:B *675:A 4.69932e-05
*RES
1 *654:COUT *675:A 37.6732 
*END

*D_NET *241 0.000659862
*CONN
*I *648:B I *D sky130_fd_sc_hd__fa_2
*I *653:COUT O *D sky130_fd_sc_hd__fa_2
*CAP
1 *648:B 0.000184727
2 *653:COUT 0.000184727
3 *648:B *675:B 6.02757e-05
4 *659:B *648:B 5.42139e-05
5 *675:A *648:B 0.000175918
*RES
1 *653:COUT *648:B 24.1843 
*END

*D_NET *1 0.00218852
*CONN
*I *838:A I *D sky130_fd_sc_hd__buf_6
*I *463:B I *D sky130_fd_sc_hd__nand2_1
*I *676:X O *D sky130_fd_sc_hd__buf_2
*CAP
1 *838:A 3.42795e-05
2 *463:B 0.000304088
3 *676:X 0.00029166
4 *1:6 0.000630028
5 *463:B *463:A 7.06474e-05
6 *463:B *817:A 0.000150081
7 *463:B *3:14 0.000213739
8 *463:B *387:10 1.06049e-05
9 *463:B *388:16 0.000362164
10 *463:B *406:12 6.14436e-05
11 *838:A *624:B 6.92305e-06
12 *1:6 *624:B 5.28632e-05
*RES
1 *676:X *1:6 15.5186 
2 *1:6 *463:B 30.5216 
3 *1:6 *838:A 10.2378 
*END

*D_NET *10 0.00672145
*CONN
*I *826:A I *D sky130_fd_sc_hd__buf_4
*I *443:B I *D sky130_fd_sc_hd__and2_1
*I *436:X O *D sky130_fd_sc_hd__buf_2
*CAP
1 *826:A 1.98947e-05
2 *443:B 0.000361848
3 *436:X 0.00263916
4 *10:24 0.0030209
5 *443:B *472:B 0.000139367
6 *443:B *11:36 9.36401e-05
7 *443:B *11:42 1.07549e-05
8 *443:B *71:13 0.000164842
9 *443:B *184:12 6.3657e-05
10 *443:B *193:12 5.14448e-05
11 *826:A *193:14 2.16355e-05
12 *826:A *396:10 6.08467e-05
13 *10:24 *752:A 7.6276e-06
14 *10:24 *71:13 3.12551e-05
15 *10:24 *125:18 0
16 *10:24 *193:12 3.45747e-05
*RES
1 *436:X *10:24 29.2095 
2 *10:24 *443:B 25.0981 
3 *10:24 *826:A 14.4725 
*END

*D_NET *341 0.000843259
*CONN
*I *446:A I *D sky130_fd_sc_hd__xnor2_2
*I *771:X O *D sky130_fd_sc_hd__buf_4
*CAP
1 *446:A 0.000277135
2 *771:X 0.000277135
3 *429:A *446:A 9.0474e-05
4 *771:A *446:A 6.27782e-05
5 *44:10 *446:A 0.000135738
6 *65:22 *446:A 0
*RES
1 *771:X *446:A 35.0367 
*END

*D_NET *342 0.00159575
*CONN
*I *630:B I *D sky130_fd_sc_hd__xnor2_1
*I *431:A2 I *D sky130_fd_sc_hd__a21oi_2
*I *772:X O *D sky130_fd_sc_hd__buf_4
*CAP
1 *630:B 0.000153113
2 *431:A2 0.000203967
3 *772:X 8.95177e-05
4 *342:10 0.000446598
5 *420:A *630:B 0
6 *432:A *431:A2 9.96342e-05
7 *432:A *630:B 0.000247188
8 *754:A *630:B 1.43832e-05
9 *772:A *342:10 6.08467e-05
10 *40:23 *342:10 4.56831e-05
11 *40:34 *431:A2 9.96342e-05
12 *40:34 *630:B 5.41227e-05
13 *42:32 *431:A2 1.03434e-05
14 *67:20 *431:A2 7.07139e-05
15 *109:8 *431:A2 0
*RES
1 *772:X *342:10 16.1605 
2 *342:10 *431:A2 20.4038 
3 *342:10 *630:B 18.7961 
*END

*D_NET *343 0.00145632
*CONN
*I *497:A I *D sky130_fd_sc_hd__xnor2_1
*I *487:B I *D sky130_fd_sc_hd__nand3_1
*I *773:X O *D sky130_fd_sc_hd__buf_4
*CAP
1 *497:A 9.69768e-05
2 *487:B 0.000249799
3 *773:X 0.00020495
4 *343:8 0.000551725
5 *487:B *487:A 5.82565e-05
6 *497:A *432:B 8.36429e-06
7 *497:A *487:A 2.76666e-05
8 P[13] *487:B 2.02035e-05
9 P[13] *497:A 2.42876e-05
10 *487:C *487:B 5.31465e-05
11 *773:A *343:8 0.000160942
*RES
1 *773:X *343:8 18.3548 
2 *343:8 *487:B 20.3205 
3 *343:8 *497:A 16.4116 
*END

*D_NET *344 0.00423346
*CONN
*I *477:B I *D sky130_fd_sc_hd__nand2_2
*I *627:B I *D sky130_fd_sc_hd__xnor2_1
*I *426:A1 I *D sky130_fd_sc_hd__a21oi_1
*I *425:C1 I *D sky130_fd_sc_hd__o211ai_1
*I *774:X O *D sky130_fd_sc_hd__buf_4
*CAP
1 *477:B 0
2 *627:B 0.000281295
3 *426:A1 6.14696e-05
4 *425:C1 0.000127766
5 *774:X 0.000103644
6 *344:40 0.000833277
7 *344:23 0.000683545
8 *344:8 0.000301504
9 *425:C1 *481:A2 1.94236e-05
10 *425:C1 *481:B1 0.000113968
11 *425:C1 *413:24 0.000213039
12 *426:A1 *426:A2 3.35964e-05
13 *344:8 *481:B1 0.000111802
14 *344:23 *426:A2 3.01797e-05
15 *427:B *344:40 0.000255387
16 *452:B *627:B 7.22413e-05
17 *627:A *627:B 3.55179e-05
18 *774:A *344:8 2.16355e-05
19 *776:A *344:8 5.24672e-05
20 *48:8 *425:C1 0.000407257
21 *48:8 *344:8 0.000339444
22 *49:10 *426:A1 6.64392e-05
23 *49:10 *344:40 4.79321e-06
24 *61:10 *426:A1 2.96666e-05
25 *61:10 *344:23 3.10924e-05
26 *96:12 *344:40 3.00835e-06
*RES
1 *774:X *344:8 13.8789 
2 *344:8 *425:C1 16.1214 
3 *344:8 *344:23 6.332 
4 *344:23 *426:A1 15.8893 
5 *344:23 *344:40 13.8318 
6 *344:40 *627:B 25.2386 
7 *344:40 *477:B 9.24915 
*END

*D_NET *345 0.000374857
*CONN
*I *483:A2 I *D sky130_fd_sc_hd__a21oi_2
*I *775:X O *D sky130_fd_sc_hd__buf_4
*CAP
1 *483:A2 3.08758e-05
2 *775:X 3.08758e-05
3 *493:B1 *483:A2 9.38559e-05
4 *777:A *483:A2 0.000219249
*RES
1 *775:X *483:A2 20.8855 
*END

*D_NET *402 0.00121288
*CONN
*I *481:A2 I *D sky130_fd_sc_hd__a21oi_2
*I *633:B I *D sky130_fd_sc_hd__xnor2_1
*I *832:X O *D sky130_fd_sc_hd__buf_4
*CAP
1 *481:A2 0.000144634
2 *633:B 0.000129408
3 *832:X 0.000274042
4 *481:A2 *413:24 2.36582e-05
5 *425:C1 *481:A2 1.94236e-05
6 *481:A1 *481:A2 0.000143032
7 *633:A *633:B 6.08467e-05
8 *764:A *633:B 0.000262339
9 *832:A *633:B 0.00011818
10 *61:10 *481:A2 3.22726e-05
11 *353:10 *481:A2 5.04829e-06
*RES
1 *832:X *633:B 23.1039 
2 *832:X *481:A2 31.3303 
*END

*D_NET *346 0.000852334
*CONN
*I *426:A2 I *D sky130_fd_sc_hd__a21oi_1
*I *481:B1 I *D sky130_fd_sc_hd__a21oi_2
*I *776:X O *D sky130_fd_sc_hd__buf_4
*CAP
1 *426:A2 0.000131259
2 *481:B1 3.88655e-05
3 *776:X 0
4 *346:4 0.000170125
5 *426:A2 *413:24 4.55032e-05
6 *481:B1 *413:24 1.00981e-05
7 *425:C1 *481:B1 0.000113968
8 *426:A1 *426:A2 3.35964e-05
9 *776:A *481:B1 0.000166937
10 *344:8 *481:B1 0.000111802
11 *344:23 *426:A2 3.01797e-05
*RES
1 *776:X *346:4 9.24915 
2 *346:4 *481:B1 11.6364 
3 *346:4 *426:A2 21.7421 
*END

*D_NET *347 0.00201151
*CONN
*I *477:A I *D sky130_fd_sc_hd__nand2_2
*I *428:A2 I *D sky130_fd_sc_hd__a31oi_4
*I *453:B I *D sky130_fd_sc_hd__xnor2_1
*I *777:X O *D sky130_fd_sc_hd__buf_4
*CAP
1 *477:A 0.000152083
2 *428:A2 0.000243948
3 *453:B 0
4 *777:X 0.000250988
5 *347:17 0.000531045
6 *347:8 0.000386002
7 *347:8 *768:A 3.43489e-05
8 *452:A *428:A2 0.00015901
9 *453:A *428:A2 1.21461e-06
10 *453:A *347:8 3.55179e-05
11 *453:A *347:17 0.000112618
12 *840:A *347:8 0.000104733
13 *96:12 *347:8 0
*RES
1 *777:X *347:8 20.9794 
2 *347:8 *453:B 13.7491 
3 *347:8 *347:17 3.90826 
4 *347:17 *428:A2 18.9335 
5 *347:17 *477:A 17.1444 
*END

*D_NET *349 0.00133238
*CONN
*I *428:B1 I *D sky130_fd_sc_hd__a31oi_4
*I *779:X O *D sky130_fd_sc_hd__buf_4
*CAP
1 *428:B1 0.000297236
2 *779:X 0.000297236
3 *428:B1 *413:24 0.000385117
4 *775:A *428:B1 0
5 *779:A *428:B1 1.88014e-05
6 *843:A *428:B1 0.000168313
7 *65:12 *428:B1 0.000165682
*RES
1 *779:X *428:B1 37.9785 
*END

*D_NET *350 0.00254364
*CONN
*I *432:B I *D sky130_fd_sc_hd__xnor2_1
*I *487:A I *D sky130_fd_sc_hd__nand3_1
*I *780:X O *D sky130_fd_sc_hd__buf_4
*CAP
1 *432:B 0.000384904
2 *487:A 0.000247094
3 *780:X 9.21669e-05
4 *350:8 0.000724166
5 P[11] *432:B 2.35705e-05
6 *431:B1 *432:B 6.80864e-05
7 *432:A *432:B 0.000502363
8 *487:B *487:A 5.82565e-05
9 *487:C *432:B 2.5619e-05
10 *487:C *487:A 9.03268e-05
11 *497:A *432:B 8.36429e-06
12 *497:A *487:A 2.76666e-05
13 *497:B *350:8 6.49834e-05
14 *755:A *432:B 4.66889e-05
15 *756:A *350:8 6.27782e-05
16 *780:A *350:8 0.000111352
17 *40:34 *432:B 5.2504e-06
*RES
1 *780:X *350:8 16.691 
2 *350:8 *487:A 21.0527 
3 *350:8 *432:B 26.134 
*END

*D_NET *11 0.0106487
*CONN
*I *827:A I *D sky130_fd_sc_hd__buf_4
*I *522:A I *D sky130_fd_sc_hd__and2_4
*I *472:A I *D sky130_fd_sc_hd__nand2_2
*I *500:A I *D sky130_fd_sc_hd__and2_1
*I *442:B I *D sky130_fd_sc_hd__and2_1
*I *434:X O *D sky130_fd_sc_hd__buf_8
*CAP
1 *827:A 0
2 *522:A 0.000188101
3 *472:A 0
4 *500:A 0
5 *442:B 0.000120007
6 *434:X 0.00068802
7 *11:42 0.000315462
8 *11:36 0.000408686
9 *11:34 0.000401332
10 *11:32 0.00120551
11 *11:14 0.00189353
12 *442:B *646:A 1.00846e-05
13 *442:B *383:63 4.24529e-05
14 *522:A *522:B 4.6284e-05
15 *522:A *658:B 0.000464127
16 *522:A *828:A 0.000211492
17 *522:A *71:13 0.000217587
18 *522:A *384:43 2.24484e-05
19 *11:14 *531:A 9.28161e-05
20 *11:14 *556:B 3.186e-05
21 *11:14 *388:109 0.000123597
22 *11:14 *389:89 4.44602e-05
23 *11:14 *395:57 6.74811e-05
24 *11:14 *397:10 2.58757e-05
25 *11:14 *397:27 0
26 *11:32 *556:B 7.20028e-05
27 *11:32 *563:A1 0.000197928
28 *11:32 *571:B 0
29 *11:32 *576:B1 0
30 *11:32 *577:A1 5.03285e-05
31 *11:32 *577:C1 0.000111708
32 *11:32 *610:A2 4.87439e-05
33 *11:32 *610:B2 4.58003e-05
34 *11:32 *610:C1 2.65667e-05
35 *11:32 *663:A 0.000173698
36 *11:32 *141:8 1.04604e-05
37 *11:32 *141:21 0.000121913
38 *11:32 *193:12 0.000850064
39 *11:32 *225:10 5.64028e-05
40 *11:32 *380:18 5.31059e-05
41 *11:36 *71:13 0.00033717
42 *11:36 *384:43 0.00054056
43 *11:42 *472:B 0.000335569
44 *11:42 *384:43 0.000359244
45 *443:B *11:36 9.36401e-05
46 *443:B *11:42 1.07549e-05
47 *812:A *522:A 7.20535e-05
48 *9:14 *11:32 0.000459784
*RES
1 *434:X *11:14 36.062 
2 *11:14 *11:32 46.908 
3 *11:32 *11:34 4.5 
4 *11:34 *11:36 10.137 
5 *11:36 *11:42 12.7324 
6 *11:42 *442:B 12.2151 
7 *11:42 *500:A 9.24915 
8 *11:36 *472:A 13.7491 
9 *11:34 *522:A 22.8176 
10 *11:14 *827:A 9.24915 
*END

*D_NET *351 0.000992614
*CONN
*I *495:B1 I *D sky130_fd_sc_hd__a21oi_2
*I *781:X O *D sky130_fd_sc_hd__buf_4
*CAP
1 *495:B1 0.000182941
2 *781:X 0.000182941
3 *485:B1 *495:B1 0.000198737
4 *495:A1 *495:B1 0.000243633
5 *771:A *495:B1 7.84964e-05
6 *781:A *495:B1 6.08467e-05
7 *102:19 *495:B1 4.50197e-05
*RES
1 *781:X *495:B1 35.0367 
*END

*D_NET *352 0.0017323
*CONN
*I *513:B I *D sky130_fd_sc_hd__xnor2_1
*I *632:A2 I *D sky130_fd_sc_hd__a21oi_1
*I *782:X O *D sky130_fd_sc_hd__buf_4
*CAP
1 *513:B 0.000319689
2 *632:A2 0.000314952
3 *782:X 0.000125326
4 *352:8 0.000759966
5 *513:B *479:A1 0
6 *632:A2 *632:B1 2.89996e-05
7 *632:A2 *353:14 4.89392e-05
8 *512:A2 *513:B 0
9 *632:A1 *632:A2 6.46815e-05
10 *763:A *513:B 0
11 *782:A *352:8 4.89251e-05
12 *36:14 *352:8 2.08274e-05
*RES
1 *782:X *352:8 16.691 
2 *352:8 *632:A2 21.1807 
3 *352:8 *513:B 21.3947 
*END

*D_NET *353 0.00316323
*CONN
*I *480:B1_N I *D sky130_fd_sc_hd__o21bai_1
*I *425:A2 I *D sky130_fd_sc_hd__o211ai_1
*I *632:B1 I *D sky130_fd_sc_hd__a21oi_1
*I *783:X O *D sky130_fd_sc_hd__buf_4
*CAP
1 *480:B1_N 0.000141938
2 *425:A2 0.000193372
3 *632:B1 4.96208e-05
4 *783:X 0.000351118
5 *353:14 0.000385274
6 *353:10 0.000635337
7 *425:A2 *413:24 6.50586e-05
8 *480:B1_N *479:A2 2.16355e-05
9 *480:B1_N *631:B1_N 2.78743e-05
10 *353:10 *481:A2 5.04829e-06
11 *425:A1 *425:A2 9.71311e-05
12 *480:A2 *480:B1_N 6.27718e-05
13 *481:A1 *425:A2 0
14 *481:A1 *480:B1_N 0.000131452
15 *481:A1 *353:10 0.000176284
16 *632:A1 *353:14 6.03223e-05
17 *632:A2 *632:B1 2.89996e-05
18 *632:A2 *353:14 4.89392e-05
19 *633:A *425:A2 0.000141728
20 *783:A *353:10 0.000110297
21 *786:A *353:10 0.000211478
22 *832:A *425:A2 0.00017419
23 *61:10 *353:10 4.33609e-05
*RES
1 *783:X *353:10 23.6509 
2 *353:10 *353:14 8.55102 
3 *353:14 *632:B1 10.5513 
4 *353:14 *425:A2 25.3723 
5 *353:10 *480:B1_N 17.9655 
*END

*D_NET *354 0.00256039
*CONN
*I *445:B I *D sky130_fd_sc_hd__nand2b_4
*I *634:A I *D sky130_fd_sc_hd__xor2_1
*I *784:X O *D sky130_fd_sc_hd__buf_6
*CAP
1 *445:B 0.000635688
2 *634:A 0.000204591
3 *784:X 0.000840279
4 *445:B *361:10 0
5 *634:A *634:B 0.000160942
6 *634:A *410:20 0.00015901
7 *446:B *445:B 0.000243875
8 *767:A *634:A 1.4106e-05
9 *779:A *445:B 0.000112199
10 *43:10 *445:B 0.000139359
11 *102:19 *445:B 5.03432e-05
*RES
1 *784:X *634:A 24.406 
2 *784:X *445:B 46.2569 
*END

*D_NET *355 0.000839831
*CONN
*I *530:A I *D sky130_fd_sc_hd__xnor2_1
*I *785:X O *D sky130_fd_sc_hd__buf_4
*CAP
1 *530:A 0.000169624
2 *785:X 0.000169624
3 *530:B *530:A 6.59115e-05
4 *757:A *530:A 0.000163069
5 *785:A *530:A 0.000271602
*RES
1 *785:X *530:A 24.2372 
*END

*D_NET *356 0.000858259
*CONN
*I *631:A2 I *D sky130_fd_sc_hd__o21bai_1
*I *786:X O *D sky130_fd_sc_hd__buf_4
*CAP
1 *631:A2 0.000211701
2 *786:X 0.000211701
3 *631:A1 *631:A2 6.46815e-05
4 *786:A *631:A2 0.000177417
5 *61:10 *631:A2 0.000192759
*RES
1 *786:X *631:A2 34.3725 
*END

*D_NET *348 0.00112112
*CONN
*I *516:A I *D sky130_fd_sc_hd__xnor2_2
*I *512:A1 I *D sky130_fd_sc_hd__a21oi_2
*I *778:X O *D sky130_fd_sc_hd__buf_4
*CAP
1 *516:A 0.000126066
2 *512:A1 3.25877e-05
3 *778:X 0.000137664
4 *348:10 0.000296318
5 *516:A *512:B1 8.62625e-06
6 *516:A *359:16 0
7 *348:10 *479:A1 6.08697e-06
8 *348:10 *512:B1 0.000144531
9 *348:10 *778:A 6.50586e-05
10 *348:10 *787:A 6.92705e-05
11 *348:10 *403:14 0.000152878
12 *512:A2 *516:A 6.58661e-05
13 *513:A *512:A1 1.61631e-05
14 *516:B *516:A 0
*RES
1 *778:X *348:10 18.7989 
2 *348:10 *512:A1 14.4725 
3 *348:10 *516:A 17.6574 
*END

*D_NET *403 0.00499556
*CONN
*I *479:A1 I *D sky130_fd_sc_hd__o21ai_1
*I *778:A I *D sky130_fd_sc_hd__buf_4
*I *833:X O *D sky130_fd_sc_hd__buf_4
*CAP
1 *479:A1 0.000177814
2 *778:A 0.000191963
3 *833:X 0.00127149
4 *403:14 0.00164127
5 *403:14 *422:B1 4.2507e-05
6 *421:A2 *403:14 0
7 *512:B1 *479:A1 0
8 *513:B *479:A1 0
9 *787:A *403:14 0.000234352
10 *788:A *403:14 0.000123582
11 *790:A *403:14 0.000117292
12 *35:10 *403:14 8.23171e-06
13 *36:12 *479:A1 3.30578e-05
14 *37:36 *403:14 0.000358589
15 *52:10 *403:14 0
16 *58:16 *403:14 6.27718e-05
17 *348:10 *479:A1 6.08697e-06
18 *348:10 *778:A 6.50586e-05
19 *348:10 *403:14 0.000152878
20 *358:14 *403:14 0.000508618
*RES
1 *833:X *403:14 45.2197 
2 *403:14 *778:A 12.625 
3 *403:14 *479:A1 22.9879 
*END

*D_NET *357 0.00132117
*CONN
*I *512:B1 I *D sky130_fd_sc_hd__a21oi_2
*I *631:B1_N I *D sky130_fd_sc_hd__o21bai_1
*I *787:X O *D sky130_fd_sc_hd__buf_4
*CAP
1 *512:B1 0.000197199
2 *631:B1_N 0.000254795
3 *787:X 0
4 *357:6 0.000451994
5 *512:B1 *479:A1 0
6 *512:B1 *358:31 0
7 *512:B1 *360:18 0
8 *480:B1_N *631:B1_N 2.78743e-05
9 *481:A1 *631:B1_N 0.000121494
10 *516:A *512:B1 8.62625e-06
11 *36:12 *631:B1_N 0.000114659
12 *348:10 *512:B1 0.000144531
*RES
1 *787:X *357:6 13.7491 
2 *357:6 *631:B1_N 21.0527 
3 *357:6 *512:B1 18.5201 
*END

*D_NET *358 0.00427025
*CONN
*I *478:C1 I *D sky130_fd_sc_hd__a211oi_2
*I *479:A2 I *D sky130_fd_sc_hd__o21ai_1
*I *787:A I *D sky130_fd_sc_hd__buf_4
*I *788:X O *D sky130_fd_sc_hd__buf_4
*CAP
1 *478:C1 0.000230981
2 *479:A2 0.000167281
3 *787:A 0.000100195
4 *788:X 0.000313362
5 *358:31 0.000550348
6 *358:14 0.000565644
7 *787:A *403:14 0.000234352
8 *358:14 *403:14 0.000508618
9 *358:31 *360:18 2.68135e-05
10 *478:A1 *358:14 6.25467e-05
11 *478:B1 *478:C1 1.02267e-05
12 *480:A1 *478:C1 0.000386691
13 *480:A2 *479:A2 3.37538e-05
14 *480:B1_N *479:A2 2.16355e-05
15 *512:B1 *358:31 0
16 *788:A *358:14 0.000111708
17 *789:A *358:14 8.57221e-05
18 *790:A *358:14 0.000463934
19 *36:12 *787:A 4.57631e-05
20 *36:12 *358:14 5.04423e-06
21 *36:14 *479:A2 0.000112361
22 *59:14 *358:14 0.000163997
23 *348:10 *787:A 6.92705e-05
*RES
1 *788:X *358:14 30.5381 
2 *358:14 *787:A 13.4931 
3 *358:14 *358:31 12.493 
4 *358:31 *479:A2 13.3002 
5 *358:31 *478:C1 16.1214 
*END

*D_NET *12 0.00891582
*CONN
*I *825:A I *D sky130_fd_sc_hd__buf_6
*I *509:A I *D sky130_fd_sc_hd__and2_1
*I *823:A I *D sky130_fd_sc_hd__buf_4
*I *837:A I *D sky130_fd_sc_hd__buf_4
*I *747:X O *D sky130_fd_sc_hd__buf_4
*CAP
1 *825:A 0
2 *509:A 9.07005e-05
3 *823:A 0
4 *837:A 0.000432402
5 *747:X 0.0012436
6 *12:39 9.07005e-05
7 *12:26 0.00159459
8 *12:14 0.00240579
9 *509:A *472:B 0.000117376
10 *509:A *587:A 4.80635e-06
11 *509:A *643:CIN 0.000318331
12 *509:A *385:33 0.000190579
13 *837:A *635:A 7.90076e-05
14 *837:A *635:B 2.18821e-05
15 *837:A *635:CIN 0.000163396
16 *837:A *643:B 9.16992e-05
17 *837:A *643:CIN 0.000224876
18 *837:A *652:B 3.93047e-05
19 *837:A *653:A 6.08467e-05
20 *837:A *407:6 6.50727e-05
21 *12:14 *395:8 0.000228593
22 *12:26 *469:A 0.000144531
23 *12:26 *472:B 0
24 *12:26 *583:A 0.000147853
25 *12:26 *585:B 0.00056165
26 *12:26 *601:A 6.73186e-05
27 *12:26 *643:B 0.000118742
28 *12:26 *643:CIN 4.33979e-05
29 *12:26 *168:8 0.000162641
30 *12:26 *184:12 0.000146927
31 *12:26 *388:67 4.29872e-05
32 *12:26 *395:8 1.62206e-05
33 *2:14 *12:14 0
*RES
1 *747:X *12:14 48.812 
2 *12:14 *12:26 33.7406 
3 *12:26 *837:A 27.9316 
4 *12:26 *12:39 4.5 
5 *12:39 *823:A 9.24915 
6 *12:39 *509:A 13.8789 
7 *12:14 *825:A 9.24915 
*END

*D_NET *359 0.00202913
*CONN
*I *515:A1 I *D sky130_fd_sc_hd__a21oi_1
*I *622:B I *D sky130_fd_sc_hd__xor2_1
*I *511:A2 I *D sky130_fd_sc_hd__a21o_1
*I *789:X O *D sky130_fd_sc_hd__buf_4
*CAP
1 *515:A1 0
2 *622:B 0
3 *511:A2 6.33301e-05
4 *789:X 0.000149406
5 *359:16 0.000333728
6 *359:6 0.000419804
7 *511:A2 *511:A1 7.00785e-05
8 *511:A2 *511:B1 0.000172709
9 *511:A2 *404:10 6.08467e-05
10 *359:16 *511:B1 0.000391783
11 *359:16 *360:18 4.8677e-05
12 *512:A2 *359:16 0
13 *515:A2 *359:16 4.3116e-06
14 *516:A *359:16 0
15 *516:B *359:16 0.000153225
16 *762:A *359:16 0
17 *789:A *359:6 0.000161234
18 *58:16 *359:16 0
*RES
1 *789:X *359:6 12.7456 
2 *359:6 *359:16 18.1017 
3 *359:16 *511:A2 12.2151 
4 *359:16 *622:B 9.24915 
5 *359:6 *515:A1 9.24915 
*END

*D_NET *360 0.00241732
*CONN
*I *511:B1 I *D sky130_fd_sc_hd__a21o_1
*I *515:B1 I *D sky130_fd_sc_hd__a21oi_1
*I *790:X O *D sky130_fd_sc_hd__buf_4
*CAP
1 *511:B1 0.000551395
2 *515:B1 0
3 *790:X 0.000251492
4 *360:18 0.000802887
5 *511:B1 *511:A1 1.4106e-05
6 *511:A2 *511:B1 0.000172709
7 *512:A2 *511:B1 0
8 *512:B1 *360:18 0
9 *515:A2 *511:B1 5.08975e-05
10 *516:B *511:B1 5.04829e-06
11 *516:B *360:18 7.92757e-06
12 *790:A *360:18 6.3657e-05
13 *36:12 *360:18 2.99287e-05
14 *58:16 *360:18 0
15 *358:31 *360:18 2.68135e-05
16 *359:16 *511:B1 0.000391783
17 *359:16 *360:18 4.8677e-05
*RES
1 *790:X *360:18 24.6545 
2 *360:18 *515:B1 9.24915 
3 *360:18 *511:B1 41.7156 
*END

*D_NET *361 0.00222191
*CONN
*I *619:B I *D sky130_fd_sc_hd__and3_1
*I *620:A I *D sky130_fd_sc_hd__nor2_1
*I *618:A1 I *D sky130_fd_sc_hd__o21ai_1
*I *791:X O *D sky130_fd_sc_hd__buf_4
*CAP
1 *619:B 0.000138564
2 *620:A 0
3 *618:A1 0.00012928
4 *791:X 0.000291532
5 *361:12 0.000150392
6 *361:10 0.000451208
7 *619:B *619:A 5.20546e-06
8 *361:10 *619:A 0.000148946
9 *445:B *361:10 0
10 *620:B *618:A1 0.000294783
11 *621:C1 *361:10 6.28484e-05
12 *621:C1 *361:12 8.62625e-06
13 *661:B *618:A1 0.000179286
14 *661:B *361:10 0.00017419
15 *661:B *361:12 8.52652e-05
16 *779:A *361:10 3.11022e-05
17 *779:A *361:12 2.17582e-05
18 *791:A *361:10 4.89251e-05
*RES
1 *791:X *361:10 23.9184 
2 *361:10 *361:12 1.41674 
3 *361:12 *618:A1 19.2141 
4 *361:12 *620:A 13.7491 
5 *361:10 *619:B 15.5817 
*END

*D_NET *362 0.00313829
*CONN
*I *565:C I *D sky130_fd_sc_hd__nand4_1
*I *572:D I *D sky130_fd_sc_hd__nand4_1
*I *792:X O *D sky130_fd_sc_hd__buf_4
*CAP
1 *565:C 0.000165886
2 *572:D 6.22361e-05
3 *792:X 0.000342659
4 *362:8 0.000570781
5 *565:C *565:D 4.07733e-05
6 *565:C *566:A 4.88955e-05
7 *565:C *566:B 8.62625e-06
8 *565:C *398:66 0.000164829
9 *565:C *417:10 3.07758e-05
10 *572:D *572:B 1.6732e-05
11 *572:D *382:32 2.58616e-05
12 *572:D *385:90 0.000219946
13 *362:8 *373:8 0.000154145
14 *362:8 *382:32 2.58757e-05
15 *362:8 *382:41 7.66391e-06
16 *362:8 *385:90 0.000425766
17 *573:A *565:C 0.000164829
18 *574:A2 *362:8 0.000342494
19 *574:B1 *362:8 7.92757e-06
20 *577:A2 *362:8 6.08467e-05
21 *803:A *362:8 1.3808e-05
22 *150:6 *362:8 2.54369e-05
23 *151:6 *362:8 0.000204651
24 *289:12 *565:C 6.84784e-06
*RES
1 *792:X *362:8 21.0887 
2 *362:8 *572:D 12.0704 
3 *362:8 *565:C 23.7141 
*END

*D_NET *363 0.00045534
*CONN
*I *514:B1 I *D sky130_fd_sc_hd__a21o_1
*I *793:X O *D sky130_fd_sc_hd__buf_4
*CAP
1 *514:B1 0.000121957
2 *793:X 0.000121957
3 *421:B1 *514:B1 8.90486e-05
4 *793:A *514:B1 0.000122378
*RES
1 *793:X *514:B1 22.5734 
*END

*D_NET *404 0.000947307
*CONN
*I *622:A I *D sky130_fd_sc_hd__xor2_1
*I *511:A1 I *D sky130_fd_sc_hd__a21o_1
*I *834:X O *D sky130_fd_sc_hd__buf_4
*CAP
1 *622:A 0
2 *511:A1 0.000101166
3 *834:X 0.000285727
4 *404:10 0.000386893
5 *511:A2 *511:A1 7.00785e-05
6 *511:A2 *404:10 6.08467e-05
7 *511:B1 *511:A1 1.4106e-05
8 *834:A *404:10 2.84892e-05
*RES
1 *834:X *404:10 15.7115 
2 *404:10 *511:A1 12.2151 
3 *404:10 *622:A 9.24915 
*END

*D_NET *364 0.000719594
*CONN
*I *617:C I *D sky130_fd_sc_hd__nand3_1
*I *616:B1 I *D sky130_fd_sc_hd__a21oi_2
*I *794:X O *D sky130_fd_sc_hd__buf_4
*CAP
1 *617:C 2.35175e-05
2 *616:B1 0
3 *794:X 0.000187127
4 *364:12 0.000210644
5 *617:C *616:A1 7.36344e-05
6 *617:C *616:A2 5.0482e-05
7 *605:A *364:12 0
8 *188:10 *364:12 0.00017419
*RES
1 *794:X *364:12 23.1595 
2 *364:12 *616:B1 9.24915 
3 *364:12 *617:C 10.5513 
*END

*D_NET *365 0.00133857
*CONN
*I *611:A I *D sky130_fd_sc_hd__nand2_1
*I *621:A1 I *D sky130_fd_sc_hd__a211oi_2
*I *795:X O *D sky130_fd_sc_hd__buf_4
*CAP
1 *611:A 0
2 *621:A1 0.000135494
3 *795:X 6.68616e-05
4 *365:8 0.000202356
5 *621:A1 *611:B 5.03545e-06
6 *621:A1 *619:A 0.000356569
7 *621:A1 *794:A 0.000376886
8 *365:8 *611:B 5.35603e-05
9 *365:8 *794:A 0.000141811
*RES
1 *795:X *365:8 16.4116 
2 *365:8 *621:A1 20.5642 
3 *365:8 *611:A 13.7491 
*END

*D_NET *366 0.00147537
*CONN
*I *617:B I *D sky130_fd_sc_hd__nand3_1
*I *616:A2 I *D sky130_fd_sc_hd__a21oi_2
*I *796:X O *D sky130_fd_sc_hd__buf_4
*CAP
1 *617:B 0
2 *616:A2 8.16444e-05
3 *796:X 0.000344613
4 *366:14 0.000426258
5 *616:A2 *616:A1 8.02639e-05
6 *366:14 *616:A1 1.37189e-05
7 *366:14 *367:12 6.36477e-05
8 *605:A *366:14 0.000149643
9 *605:B *366:14 0
10 *617:C *616:A2 5.0482e-05
11 *187:6 *366:14 9.46208e-05
12 *188:10 *366:14 0
13 *198:8 *616:A2 0
14 *199:14 *616:A2 0.000170484
*RES
1 *796:X *366:14 27.8989 
2 *366:14 *616:A2 13.2158 
3 *366:14 *617:B 9.24915 
*END

*D_NET *367 0.00125818
*CONN
*I *616:A1 I *D sky130_fd_sc_hd__a21oi_2
*I *617:A I *D sky130_fd_sc_hd__nand3_1
*I *797:X O *D sky130_fd_sc_hd__buf_4
*CAP
1 *616:A1 0.000249922
2 *617:A 0
3 *797:X 0.000182334
4 *367:12 0.000432256
5 *367:12 *468:B 6.26227e-05
6 *605:A *367:12 9.34869e-05
7 *616:A2 *616:A1 8.02639e-05
8 *617:C *616:A1 7.36344e-05
9 *198:8 *616:A1 4.30017e-06
10 *199:14 *616:A1 1.99543e-06
11 *366:14 *616:A1 1.37189e-05
12 *366:14 *367:12 6.36477e-05
*RES
1 *797:X *367:12 24.1294 
2 *367:12 *617:A 9.24915 
3 *367:12 *616:A1 15.832 
*END

*D_NET *13 0.0117029
*CONN
*I *459:B I *D sky130_fd_sc_hd__nand4_1
*I *824:A I *D sky130_fd_sc_hd__buf_4
*I *508:A I *D sky130_fd_sc_hd__and2_1
*I *460:A I *D sky130_fd_sc_hd__nand2_1
*I *521:A I *D sky130_fd_sc_hd__and2_1
*I *455:A I *D sky130_fd_sc_hd__and2_1
*I *439:B I *D sky130_fd_sc_hd__and2_1
*I *748:X O *D sky130_fd_sc_hd__buf_6
*CAP
1 *459:B 0.000172588
2 *824:A 1.98947e-05
3 *508:A 2.06324e-05
4 *460:A 0.00023546
5 *521:A 0.000297905
6 *455:A 0
7 *439:B 7.11083e-05
8 *748:X 0.00100685
9 *13:75 0.000342864
10 *13:30 0.000503983
11 *13:24 0.000867649
12 *13:22 0.00050798
13 *13:18 0.000447948
14 *13:14 0.00144889
15 *439:B *455:B 0.000112367
16 *439:B *519:A 6.46815e-05
17 *439:B *638:B 0.000112361
18 *439:B *638:CIN 1.3808e-05
19 *459:B *459:C 0.000161252
20 *459:B *609:B1 4.08414e-05
21 *459:B *388:33 0.000114659
22 *460:A *460:B 4.76161e-06
23 *460:A *467:A1 2.24484e-05
24 *460:A *467:B1 0.000133259
25 *460:A *636:CIN 1.38872e-05
26 *460:A *669:A 7.40084e-05
27 *460:A *81:8 1.17394e-05
28 *460:A *85:22 4.02446e-05
29 *521:A *467:A1 0.000160376
30 *521:A *523:A 0.000125836
31 *521:A *635:A 4.35719e-05
32 *521:A *668:A 4.58907e-05
33 *521:A *668:B 7.43896e-05
34 *521:A *290:24 1.88014e-05
35 *824:A *87:10 2.16355e-05
36 *824:A *294:22 6.08467e-05
37 *13:14 *462:A 2.24484e-05
38 *13:14 *642:CIN 0.000209701
39 *13:14 *748:A 6.50586e-05
40 *13:14 *749:A 0
41 *13:14 *14:10 4.19421e-05
42 *13:14 *15:12 0
43 *13:14 *385:8 0
44 *13:14 *391:10 0.000840883
45 *13:18 *462:B 2.65667e-05
46 *13:18 *508:B 0.000113968
47 *13:18 *609:B1 2.99287e-05
48 *13:18 *610:B1 2.34061e-05
49 *13:18 *653:A 3.14978e-05
50 *13:18 *295:24 6.59083e-05
51 *13:22 *467:A1 6.50727e-05
52 *13:22 *467:B1 0.000118166
53 *13:22 *653:A 8.66302e-05
54 *13:24 *467:A1 0.000337707
55 *13:24 *525:B 0
56 *13:24 *645:A 0
57 *13:24 *647:A 0
58 *13:24 *647:CIN 0.000148144
59 *13:30 *455:B 9.71388e-05
60 *13:30 *467:A1 2.91462e-05
61 *13:30 *519:A 0.000846732
62 *13:30 *636:A 0.000285261
63 *13:30 *636:B 3.84569e-05
64 *13:30 *636:CIN 1.06049e-05
65 *13:30 *647:CIN 0.000153202
66 *13:75 *462:A 3.31882e-05
67 *13:75 *609:B1 3.4403e-05
68 *13:75 *610:B1 7.74848e-05
69 *13:75 *388:33 0.00014977
70 *13:75 *391:18 9.57557e-06
71 *457:B *13:30 0.000178968
72 *521:B *521:A 0.000116505
*RES
1 *748:X *13:14 42.4094 
2 *13:14 *13:18 12.4332 
3 *13:18 *13:22 8.55102 
4 *13:22 *13:24 5.98452 
5 *13:24 *13:30 20.9121 
6 *13:30 *439:B 12.2151 
7 *13:30 *455:A 9.24915 
8 *13:24 *521:A 23.3462 
9 *13:22 *460:A 19.5035 
10 *13:18 *508:A 9.82786 
11 *13:14 *13:75 4.32351 
12 *13:75 *824:A 14.4725 
13 *13:75 *459:B 17.829 
*END

*D_NET *368 0.00131801
*CONN
*I *421:A1 I *D sky130_fd_sc_hd__a211oi_1
*I *514:A1 I *D sky130_fd_sc_hd__a21o_1
*I *798:X O *D sky130_fd_sc_hd__buf_4
*CAP
1 *421:A1 9.01514e-05
2 *514:A1 0.000165221
3 *798:X 3.51473e-05
4 *368:8 0.000290519
5 *421:A2 *421:A1 9.51287e-05
6 *421:A2 *514:A1 4.8694e-05
7 *421:B1 *421:A1 0.000143175
8 *421:B1 *514:A1 0.000284794
9 *421:C1 *421:A1 1.94615e-05
10 *798:A *368:8 0.000107496
11 *34:8 *368:8 3.82228e-05
*RES
1 *798:X *368:8 15.0271 
2 *368:8 *514:A1 17.829 
3 *368:8 *421:A1 17.6574 
*END

*D_NET *369 0.00365178
*CONN
*I *612:A I *D sky130_fd_sc_hd__nand2_1
*I *619:A I *D sky130_fd_sc_hd__and3_1
*I *799:X O *D sky130_fd_sc_hd__buf_4
*CAP
1 *612:A 0
2 *619:A 0.000544191
3 *799:X 0.000427603
4 *369:12 0.000971794
5 *369:12 *468:B 9.35974e-05
6 *614:A2 *369:12 0.000132895
7 *614:B1 *369:12 4.3116e-06
8 *615:A2 *619:A 0.000202726
9 *619:B *619:A 5.20546e-06
10 *621:A1 *619:A 0.000356569
11 *621:A2 *619:A 0
12 *621:B1 *619:A 3.25751e-05
13 *661:B *619:A 0.000273292
14 *791:A *619:A 9.8238e-05
15 *791:A *369:12 0.000359836
16 *188:10 *619:A 0
17 *361:10 *619:A 0.000148946
*RES
1 *799:X *369:12 30.3637 
2 *369:12 *619:A 36.2524 
3 *369:12 *612:A 9.24915 
*END

*D_NET *370 0.00166046
*CONN
*I *591:A1 I *D sky130_fd_sc_hd__a22oi_2
*I *592:A I *D sky130_fd_sc_hd__and4_1
*I *800:X O *D sky130_fd_sc_hd__buf_4
*CAP
1 *591:A1 2.12792e-05
2 *592:A 0.000138043
3 *800:X 0.000213477
4 *370:14 0.0003728
5 *592:A *576:A1 0.000121494
6 *576:B1 *592:A 0.000253367
7 *576:B1 *370:14 6.08467e-05
8 *592:B *370:14 6.63616e-05
9 *592:D *592:A 0.00011815
10 *610:B2 *370:14 0.000114659
11 *610:C1 *370:14 0.00011815
12 *800:A *370:14 5.481e-05
13 *176:8 *592:A 7.01935e-06
*RES
1 *800:X *370:14 24.1616 
2 *370:14 *592:A 23.4382 
3 *370:14 *591:A1 9.82786 
*END

*D_NET *371 0.00112757
*CONN
*I *610:A2 I *D sky130_fd_sc_hd__o221ai_2
*I *801:X O *D sky130_fd_sc_hd__buf_4
*CAP
1 *610:A2 0.000377352
2 *801:X 0.000377352
3 *610:A2 *380:18 0
4 *576:B1 *610:A2 0.000319078
5 *801:A *610:A2 5.04829e-06
6 *11:32 *610:A2 4.87439e-05
*RES
1 *801:X *610:A2 36.6175 
*END

*D_NET *372 0.0029158
*CONN
*I *571:A I *D sky130_fd_sc_hd__nand4_1
*I *572:C I *D sky130_fd_sc_hd__nand4_1
*I *577:A1 I *D sky130_fd_sc_hd__a211oi_2
*I *802:X O *D sky130_fd_sc_hd__buf_4
*CAP
1 *571:A 1.53062e-05
2 *572:C 0.000383707
3 *577:A1 0.000211753
4 *802:X 0
5 *372:27 0.000918062
6 *372:6 0.000730802
7 *572:C *382:32 0.000120716
8 *572:C *386:32 2.84898e-06
9 *572:C *417:10 0.000113295
10 *577:A1 *387:77 0
11 *372:27 *535:A 5.1017e-05
12 *372:27 *564:B 1.47716e-05
13 *372:27 *387:77 0
14 *571:C *571:A 1.5714e-05
15 *574:A1 *372:27 0
16 *577:A2 *577:A1 0.000156823
17 *577:A2 *372:27 0.000110294
18 *610:C1 *577:A1 1.61631e-05
19 *11:32 *577:A1 5.03285e-05
20 *307:22 *571:A 4.20184e-06
*RES
1 *802:X *372:6 13.7491 
2 *372:6 *577:A1 19.9563 
3 *372:6 *372:27 10.1462 
4 *372:27 *572:C 20.1581 
5 *372:27 *571:A 17.4965 
*END

*D_NET *373 0.00243005
*CONN
*I *571:D I *D sky130_fd_sc_hd__nand4_1
*I *565:D I *D sky130_fd_sc_hd__nand4_1
*I *803:X O *D sky130_fd_sc_hd__buf_4
*CAP
1 *571:D 0.000140858
2 *565:D 0.000206202
3 *803:X 4.133e-05
4 *373:8 0.00038839
5 *565:D *522:B 2.51345e-05
6 *565:D *566:A 0.000169041
7 *565:D *386:10 4.70559e-05
8 *565:D *398:66 0.000318974
9 *571:D *382:32 2.22523e-05
10 *373:8 *382:41 1.65872e-05
11 *565:C *565:D 4.07733e-05
12 *573:C *571:D 2.8322e-05
13 *658:B *565:D 0.000406794
14 *803:A *373:8 0.000107496
15 *71:13 *565:D 0
16 *289:12 *565:D 0.000131995
17 *289:12 *571:D 0.000184703
18 *362:8 *373:8 0.000154145
*RES
1 *803:X *373:8 15.5817 
2 *373:8 *565:D 31.7422 
3 *373:8 *571:D 17.9749 
*END

*D_NET *374 0.00104625
*CONN
*I *560:S I *D sky130_fd_sc_hd__mux2i_2
*I *561:B I *D sky130_fd_sc_hd__nand3_1
*I *804:X O *D sky130_fd_sc_hd__buf_4
*CAP
1 *560:S 0.000210532
2 *561:B 0
3 *804:X 0.00014799
4 *374:10 0.000358522
5 *560:S *388:76 5.39463e-05
6 *560:S *395:57 0.000127194
7 *560:A0 *560:S 1.61631e-05
8 *560:A0 *374:10 4.91225e-06
9 *142:41 *560:S 3.33999e-05
10 *142:41 *374:10 4.92057e-05
11 *148:10 *560:S 4.43826e-05
12 *148:10 *374:10 0
*RES
1 *804:X *374:10 13.2037 
2 *374:10 *561:B 9.24915 
3 *374:10 *560:S 24.0169 
*END

*D_NET *376 0.00312705
*CONN
*I *543:B1 I *D sky130_fd_sc_hd__o21ai_0
*I *538:A I *D sky130_fd_sc_hd__nor2_1
*I *539:A1 I *D sky130_fd_sc_hd__a21oi_1
*I *806:X O *D sky130_fd_sc_hd__buf_4
*CAP
1 *543:B1 0.000146085
2 *538:A 0
3 *539:A1 0.000285323
4 *806:X 0.000307597
5 *376:16 0.000385084
6 *376:10 0.000553443
7 P[0] *543:B1 0.0002087
8 P[0] *376:10 6.08467e-05
9 *539:A2 *539:A1 0
10 *539:B1 *539:A1 0.000100951
11 *544:B *376:16 4.70789e-05
12 *571:B *539:A1 6.46815e-05
13 *123:12 *376:10 3.31745e-05
14 *124:12 *376:10 3.82228e-05
15 *126:10 *539:A1 0.000140502
16 *126:29 *539:A1 0.000232447
17 *126:29 *543:B1 7.28994e-06
18 *126:29 *376:16 0.00011449
19 *128:12 *539:A1 0.000320858
20 *128:12 *376:16 3.32165e-06
21 *288:14 *539:A1 7.69537e-05
*RES
1 *806:X *376:10 18.3789 
2 *376:10 *376:16 3.15103 
3 *376:16 *539:A1 25.0248 
4 *376:16 *538:A 13.7491 
5 *376:10 *543:B1 18.0727 
*END

*D_NET *377 0.00410084
*CONN
*I *598:B1 I *D sky130_fd_sc_hd__a21oi_1
*I *599:A1 I *D sky130_fd_sc_hd__a21oi_1
*I *475:A I *D sky130_fd_sc_hd__and3_1
*I *474:A I *D sky130_fd_sc_hd__nor4_1
*I *807:X O *D sky130_fd_sc_hd__buf_4
*CAP
1 *598:B1 0.000306967
2 *599:A1 5.51732e-05
3 *475:A 0.000248409
4 *474:A 0.000112063
5 *807:X 7.40287e-05
6 *377:38 0.000619333
7 *377:12 0.000511273
8 *377:10 0.000482023
9 *474:A *443:A 0.000164829
10 *598:B1 *468:B 3.31736e-05
11 *377:10 *396:10 2.16355e-05
12 *475:C *475:A 2.37166e-05
13 *476:A2 *377:38 4.84662e-06
14 *476:C1 *474:A 3.47902e-05
15 *476:C1 *377:12 2.89271e-05
16 *597:A *475:A 4.61271e-05
17 *598:A2 *598:B1 4.99766e-05
18 *599:A2 *599:A1 1.50924e-05
19 *599:A2 *377:38 1.88422e-05
20 *599:B1 *598:B1 4.4537e-05
21 *600:A0 *377:12 1.93511e-05
22 *600:S *598:B1 0.000116652
23 *663:A *598:B1 2.65667e-05
24 *807:A *377:10 3.26247e-05
25 *807:A *377:12 4.19821e-05
26 *5:16 *474:A 0.000143482
27 *5:16 *377:10 8.96342e-05
28 *5:16 *377:12 0.000296428
29 *90:32 *475:A 7.28513e-06
30 *92:27 *377:38 0.000203756
31 *95:8 *475:A 9.44631e-06
32 *184:12 *474:A 6.23875e-05
33 *193:14 *377:10 6.08467e-05
34 *226:16 *598:B1 9.46343e-05
*RES
1 *807:X *377:10 16.3045 
2 *377:10 *377:12 5.56926 
3 *377:12 *474:A 18.2442 
4 *377:12 *475:A 17.8243 
5 *377:10 *377:38 8.55102 
6 *377:38 *599:A1 10.5513 
7 *377:38 *598:B1 26.4227 
*END

*D_NET *375 0.00240853
*CONN
*I *602:B I *D sky130_fd_sc_hd__xnor2_1
*I *466:C I *D sky130_fd_sc_hd__nand3_1
*I *603:A2 I *D sky130_fd_sc_hd__a21oi_1
*I *805:X O *D sky130_fd_sc_hd__buf_4
*CAP
1 *602:B 0.000204437
2 *466:C 1.14991e-05
3 *603:A2 0
4 *805:X 0.000336435
5 *375:12 1.14991e-05
6 *375:10 0.000540872
7 *466:C *378:21 6.27782e-05
8 *466:C *379:18 6.27782e-05
9 *602:B *604:A1 1.7387e-05
10 *602:B *604:A2 6.27718e-05
11 *602:B *604:B2 4.47962e-05
12 *602:B *387:10 6.38519e-05
13 *602:B *387:29 2.42438e-05
14 *375:10 *378:12 0.000191279
15 *375:10 *387:10 0.00010898
16 *375:10 *388:16 8.33549e-05
17 *375:10 *389:32 0.000153225
18 *375:10 *406:12 0.000195154
19 *604:B1 *602:B 0.000107496
20 *809:A *375:10 0.000125695
21 *85:22 *375:10 0
*RES
1 *805:X *375:10 25.7188 
2 *375:10 *375:12 4.5 
3 *375:12 *603:A2 9.24915 
4 *375:12 *466:C 9.97254 
5 *375:10 *602:B 19.8392 
*END

*D_NET *14 0.00522107
*CONN
*I *525:B I *D sky130_fd_sc_hd__and2_4
*I *520:A I *D sky130_fd_sc_hd__and2_1
*I *507:A I *D sky130_fd_sc_hd__and2_4
*I *822:A I *D sky130_fd_sc_hd__buf_4
*I *821:A I *D sky130_fd_sc_hd__buf_4
*I *749:X O *D sky130_fd_sc_hd__buf_6
*CAP
1 *525:B 0.000626122
2 *520:A 2.43238e-05
3 *507:A 0
4 *822:A 2.91414e-05
5 *821:A 0
6 *749:X 9.92251e-05
7 *14:43 0.000764453
8 *14:32 0.000249557
9 *14:21 0.000674937
10 *14:10 0.00060947
11 *525:B *457:A 0.000109421
12 *525:B *644:B 0.000209597
13 *525:B *644:CIN 0.000361369
14 *525:B *645:A 0
15 *525:B *647:CIN 0
16 *525:B *648:CIN 2.41274e-06
17 *525:B *78:12 0.000145027
18 *14:21 *450:A 0.00011818
19 *14:32 *637:A 0.000186904
20 *14:43 *636:CIN 4.12111e-05
21 *14:43 *637:A 4.86213e-05
22 *14:43 *16:39 1.67286e-05
23 *507:B *14:32 0.000116958
24 *507:B *14:43 1.03594e-05
25 *520:B *520:A 6.27718e-05
26 *520:B *525:B 6.27782e-05
27 *525:A *525:B 0.000111722
28 *6:12 *14:21 0.000219467
29 *6:16 *14:32 8.62625e-06
30 *6:32 *14:32 0.000269747
31 *13:14 *14:10 4.19421e-05
32 *13:24 *525:B 0
*RES
1 *749:X *14:10 20.9116 
2 *14:10 *821:A 9.24915 
3 *14:10 *14:21 13.5275 
4 *14:21 *822:A 9.97254 
5 *14:21 *14:32 11.315 
6 *14:32 *507:A 13.7491 
7 *14:32 *14:43 7.993 
8 *14:43 *520:A 9.97254 
9 *14:43 *525:B 36.3545 
*END

*D_NET *378 0.0015765
*CONN
*I *602:A I *D sky130_fd_sc_hd__xnor2_1
*I *466:B I *D sky130_fd_sc_hd__nand3_1
*I *603:A1 I *D sky130_fd_sc_hd__a21oi_1
*I *808:X O *D sky130_fd_sc_hd__buf_4
*CAP
1 *602:A 0.00010712
2 *466:B 0
3 *603:A1 0
4 *808:X 0.000117482
5 *378:21 0.000184873
6 *378:12 0.000195235
7 *602:A *379:12 7.01935e-06
8 *602:A *379:18 7.67734e-06
9 *602:A *406:27 0.000122992
10 *602:A *408:16 0.000122992
11 *378:12 *604:B2 8.36586e-06
12 *378:12 *388:16 2.65667e-05
13 *378:12 *389:32 0.00019516
14 *378:21 *379:18 6.22434e-05
15 *466:C *378:21 6.27782e-05
16 *85:22 *378:12 5.68225e-06
17 *87:10 *378:21 0.000159032
18 *375:10 *378:12 0.000191279
*RES
1 *808:X *378:12 23.0201 
2 *378:12 *603:A1 9.24915 
3 *378:12 *378:21 2.96592 
4 *378:21 *466:B 9.24915 
5 *378:21 *602:A 21.7985 
*END

*D_NET *379 0.00169336
*CONN
*I *466:A I *D sky130_fd_sc_hd__nand3_1
*I *604:B2 I *D sky130_fd_sc_hd__a221o_1
*I *603:B1 I *D sky130_fd_sc_hd__a21oi_1
*I *809:X O *D sky130_fd_sc_hd__buf_4
*CAP
1 *466:A 0
2 *604:B2 0.00017387
3 *603:B1 2.39468e-05
4 *809:X 0.000131037
5 *379:18 0.000369566
6 *379:12 0.000302787
7 *604:B2 *459:C 3.5063e-05
8 *604:B2 *604:A1 1.70606e-05
9 *604:B2 *389:32 7.30595e-05
10 *604:B2 *389:47 3.44412e-06
11 *604:B2 *394:16 1.57791e-05
12 *379:12 *408:16 0.000201442
13 *466:C *379:18 6.27782e-05
14 *602:A *379:12 7.01935e-06
15 *602:A *379:18 7.67734e-06
16 *602:B *604:B2 4.47962e-05
17 *604:B1 *604:B2 1.45198e-05
18 *604:C1 *603:B1 1.41976e-05
19 *604:C1 *379:18 1.02267e-05
20 *2:14 *379:12 8.2492e-05
21 *87:10 *603:B1 2.16355e-05
22 *87:10 *379:18 7.66391e-06
23 *187:6 *604:B2 2.68666e-06
24 *378:12 *604:B2 8.36586e-06
25 *378:21 *379:18 6.22434e-05
*RES
1 *809:X *379:12 23.0201 
2 *379:12 *379:18 4.65385 
3 *379:18 *603:B1 9.97254 
4 *379:18 *604:B2 23.327 
5 *379:12 *466:A 9.24915 
*END

*D_NET *380 0.00297496
*CONN
*I *610:A1 I *D sky130_fd_sc_hd__o221ai_2
*I *810:X O *D sky130_fd_sc_hd__buf_4
*CAP
1 *610:A1 0
2 *810:X 0.000822722
3 *380:18 0.000822722
4 *380:18 *388:48 0.000383255
5 *380:18 *391:46 0.000167286
6 *585:B *380:18 0.000192411
7 *589:B_N *380:18 0.000165521
8 *609:B1 *380:18 2.75449e-05
9 *610:A2 *380:18 0
10 *11:32 *380:18 5.31059e-05
11 *79:6 *380:18 9.24257e-05
12 *141:8 *380:18 0.00013799
13 *169:10 *380:18 0.000109978
*RES
1 *810:X *380:18 42.3666 
2 *380:18 *610:A1 9.24915 
*END

*D_NET *381 0.00140583
*CONN
*I *467:A1 I *D sky130_fd_sc_hd__o311a_1
*I *811:X O *D sky130_fd_sc_hd__buf_4
*CAP
1 *467:A1 0.000201239
2 *811:X 0.000201239
3 *460:A *467:A1 2.24484e-05
4 *521:A *467:A1 0.000160376
5 *636:CIN *467:A1 0.000175041
6 *653:A *467:A1 0.000107496
7 *668:B *467:A1 3.96285e-05
8 *13:22 *467:A1 6.50727e-05
9 *13:24 *467:A1 0.000337707
10 *13:30 *467:A1 2.91462e-05
11 *290:24 *467:A1 6.64392e-05
*RES
1 *811:X *467:A1 37.4239 
*END

*D_NET *382 0.0133165
*CONN
*I *626:A I *D sky130_fd_sc_hd__and2_2
*I *503:A I *D sky130_fd_sc_hd__and2_1
*I *550:A1 I *D sky130_fd_sc_hd__a21oi_2
*I *553:A1 I *D sky130_fd_sc_hd__a31o_2
*I *548:A I *D sky130_fd_sc_hd__nand2_1
*I *468:B I *D sky130_fd_sc_hd__nand2_2
*I *623:A I *D sky130_fd_sc_hd__and2_1
*I *564:A I *D sky130_fd_sc_hd__nand2_1
*I *535:A I *D sky130_fd_sc_hd__nand2_2
*I *576:A1 I *D sky130_fd_sc_hd__a21oi_1
*I *572:A I *D sky130_fd_sc_hd__nand4_1
*I *812:X O *D sky130_fd_sc_hd__buf_4
*CAP
1 *626:A 0
2 *503:A 1.5751e-05
3 *550:A1 0.000377976
4 *553:A1 0
5 *548:A 1.97954e-05
6 *468:B 0.000808627
7 *623:A 0
8 *564:A 4.14009e-05
9 *535:A 0.000234815
10 *576:A1 0.00043784
11 *572:A 0
12 *812:X 0.000264991
13 *382:123 0.000377976
14 *382:101 0.000886561
15 *382:99 0.000470015
16 *382:91 0.000741234
17 *382:85 0.000313607
18 *382:56 0.000358026
19 *382:41 0.000686973
20 *382:32 0.000641495
21 *382:20 0.000652268
22 *382:14 0.000443086
23 *468:B *548:B 1.03594e-05
24 *503:A *449:A 2.19102e-05
25 *535:A *387:81 2.16355e-05
26 *550:A1 *416:26 2.5668e-05
27 *576:A1 *385:84 0.000315003
28 *382:20 *498:A 0.000267404
29 *382:20 *498:B 0.000132607
30 *382:20 *846:A 0.000216458
31 *382:20 *398:14 1.51628e-05
32 *382:32 *498:A 4.05313e-05
33 *382:32 *534:A 0.000144546
34 *382:32 *572:B 5.04829e-06
35 *382:32 *623:B 6.50586e-05
36 *382:32 *846:A 0
37 *382:32 *417:10 1.22289e-05
38 *382:91 *449:A 0.000305848
39 *382:91 *498:B 3.07848e-05
40 *382:91 *504:B 7.74146e-05
41 *382:91 *398:14 0.000401287
42 *382:91 *399:82 9.9774e-06
43 *382:99 *449:A 0.000142328
44 *382:99 *416:22 0
45 *382:101 *548:B 0.000111135
46 *539:B1 *535:A 0.000207371
47 *542:A2 *535:A 6.04133e-05
48 *549:B *548:A 1.43832e-05
49 *551:A *382:99 0
50 *552:A1 *550:A1 0.000158002
51 *553:A3 *548:A 2.58757e-05
52 *553:A3 *382:99 8.36429e-06
53 *553:B1 *550:A1 2.16355e-05
54 *571:C *576:A1 7.74044e-06
55 *571:D *382:32 2.22523e-05
56 *572:C *382:32 0.000120716
57 *572:D *382:32 2.58616e-05
58 *573:C *382:32 6.93171e-05
59 *574:A2 *564:A 2.30636e-05
60 *574:A2 *382:56 7.01935e-06
61 *574:B1 *564:A 1.0759e-05
62 *575:C *576:A1 7.20022e-05
63 *577:B1 *576:A1 5.88662e-05
64 *577:C1 *576:A1 3.18408e-05
65 *592:A *576:A1 0.000121494
66 *598:B1 *468:B 3.31736e-05
67 *599:B1 *468:B 0.000272361
68 *600:S *468:B 0.000100087
69 *605:A *468:B 0
70 *610:C1 *576:A1 0
71 *652:A *468:B 0
72 *655:A *382:99 2.19276e-05
73 *658:A *468:B 7.78812e-05
74 *658:A *382:99 0.000374884
75 *658:A *382:101 4.13313e-05
76 *674:B *382:99 0.000193252
77 *803:A *382:41 0.000159016
78 *71:13 *382:14 0.000115055
79 *88:10 *468:B 6.12656e-05
80 *140:18 *550:A1 2.08274e-05
81 *140:18 *382:99 8.92568e-06
82 *151:6 *382:41 1.88422e-05
83 *151:6 *382:56 5.40018e-05
84 *226:16 *468:B 5.25444e-05
85 *234:14 *550:A1 3.86207e-06
86 *234:14 *382:32 0
87 *289:12 *576:A1 0
88 *289:12 *382:32 0
89 *307:22 *535:A 8.17309e-05
90 *307:22 *576:A1 0.000156387
91 *362:8 *382:32 2.58757e-05
92 *362:8 *382:41 7.66391e-06
93 *367:12 *468:B 6.26227e-05
94 *369:12 *468:B 9.35974e-05
95 *372:27 *535:A 5.1017e-05
96 *373:8 *382:41 1.65872e-05
*RES
1 *812:X *382:14 19.5705 
2 *382:14 *382:20 10.9348 
3 *382:20 *382:32 21.9959 
4 *382:32 *572:A 9.24915 
5 *382:32 *382:41 4.07513 
6 *382:41 *576:A1 32.441 
7 *382:41 *382:56 1.8326 
8 *382:56 *535:A 25.3723 
9 *382:56 *564:A 10.5513 
10 *382:20 *623:A 9.24915 
11 *382:14 *382:85 4.5 
12 *382:85 *382:91 9.78996 
13 *382:91 *382:99 17.6177 
14 *382:99 *382:101 2.24725 
15 *382:101 *468:B 38.3129 
16 *382:101 *548:A 14.4725 
17 *382:99 *382:123 4.5 
18 *382:123 *553:A1 9.24915 
19 *382:123 *550:A1 15.398 
20 *382:91 *503:A 9.82786 
21 *382:85 *626:A 9.24915 
*END

*D_NET *383 0.00754251
*CONN
*I *443:A I *D sky130_fd_sc_hd__and2_1
*I *442:A I *D sky130_fd_sc_hd__and2_1
*I *468:A I *D sky130_fd_sc_hd__nand2_2
*I *441:A I *D sky130_fd_sc_hd__and2_1
*I *439:A I *D sky130_fd_sc_hd__and2_1
*I *435:A I *D sky130_fd_sc_hd__and2_1
*I *433:A I *D sky130_fd_sc_hd__and2_1
*I *813:X O *D sky130_fd_sc_hd__buf_4
*CAP
1 *443:A 0.000286183
2 *442:A 0
3 *468:A 0.000105458
4 *441:A 0.000126932
5 *439:A 0
6 *435:A 0
7 *433:A 0.00011722
8 *813:X 0.000262801
9 *383:63 0.000177929
10 *383:55 0.000789659
11 *383:44 0.000938242
12 *383:35 0.00068024
13 *383:24 0.000445515
14 *441:A *441:B 6.64392e-05
15 *383:24 *435:B 0
16 *383:35 *435:B 6.92705e-05
17 *383:35 *384:10 0
18 *437:A *433:A 0.00011818
19 *437:A *383:24 3.67528e-06
20 *442:B *383:63 4.24529e-05
21 *474:A *443:A 0.000164829
22 *474:C *443:A 0.000113968
23 *646:A *383:55 8.87576e-05
24 *646:A *383:63 0.00011818
25 *649:A *383:24 0.00011818
26 *649:A *383:35 0.000171273
27 *649:CIN *383:24 5.07314e-05
28 *649:CIN *383:35 4.09471e-05
29 *650:A *433:A 0.000257892
30 *650:A *383:24 3.31733e-05
31 *651:CIN *433:A 0.000222149
32 *652:A *443:A 0
33 *652:A *383:55 0
34 *652:CIN *383:44 0
35 *652:CIN *383:55 0
36 *654:CIN *383:55 9.01128e-05
37 *667:B *383:24 0
38 *5:16 *443:A 0.000177787
39 *5:16 *383:44 0.000169063
40 *5:16 *383:55 0.00091076
41 *5:22 *383:44 8.3095e-05
42 *8:14 *383:24 5.20375e-05
43 *8:14 *383:35 0
44 *184:12 *443:A 3.55007e-05
45 *208:14 *441:A 0.000413877
46 *208:14 *383:44 0
*RES
1 *813:X *433:A 24.7677 
2 *813:X *383:24 23.0201 
3 *383:24 *435:A 9.24915 
4 *383:24 *383:35 12.7324 
5 *383:35 *439:A 13.7491 
6 *383:35 *383:44 10.137 
7 *383:44 *441:A 18.3548 
8 *383:44 *383:55 16.3658 
9 *383:55 *383:63 7.08951 
10 *383:63 *468:A 11.6364 
11 *383:63 *442:A 9.24915 
12 *383:55 *443:A 22.0353 
*END

*D_NET *384 0.00684531
*CONN
*I *502:B I *D sky130_fd_sc_hd__and2_4
*I *470:B I *D sky130_fd_sc_hd__nand2_2
*I *500:B I *D sky130_fd_sc_hd__and2_1
*I *499:B I *D sky130_fd_sc_hd__and2_1
*I *455:B I *D sky130_fd_sc_hd__and2_1
*I *814:X O *D sky130_fd_sc_hd__buf_4
*CAP
1 *502:B 0
2 *470:B 9.72565e-05
3 *500:B 0
4 *499:B 0
5 *455:B 7.9118e-05
6 *814:X 0.000243215
7 *384:43 0.000496135
8 *384:30 0.000767934
9 *384:21 0.000816849
10 *384:10 0.000770126
11 *384:21 *441:B 4.47578e-05
12 *384:30 *472:B 5.22654e-06
13 *384:43 *472:B 1.1246e-05
14 *439:B *455:B 0.000112367
15 *474:C *384:43 0.000309556
16 *502:A *470:B 6.56531e-05
17 *519:A *384:21 0.000138334
18 *522:A *384:43 2.24484e-05
19 *598:A1 *470:B 7.64515e-05
20 *635:CIN *384:21 0
21 *635:CIN *384:30 0
22 *636:B *384:10 0
23 *643:A *384:30 3.90891e-05
24 *643:CIN *384:30 0
25 *646:B *384:21 0.000360687
26 *646:B *384:30 0.000391845
27 *646:CIN *384:30 0.000160999
28 *654:A *384:30 3.78664e-05
29 *663:A *470:B 1.65872e-05
30 *663:A *384:43 2.16355e-05
31 *670:A *384:10 3.39204e-05
32 *670:A *384:21 7.74044e-06
33 *812:A *384:43 5.05252e-05
34 *5:16 *384:30 7.29287e-05
35 *5:16 *384:43 3.4693e-05
36 *5:22 *384:21 6.97452e-05
37 *9:14 *384:43 1.65872e-05
38 *11:36 *384:43 0.00054056
39 *11:42 *384:43 0.000359244
40 *13:30 *455:B 9.71388e-05
41 *16:26 *384:10 8.28869e-05
42 *90:17 *470:B 4.66492e-05
43 *90:17 *384:43 0.00011101
44 *92:23 *384:43 0.000163478
45 *265:18 *470:B 7.2817e-05
46 *383:35 *384:10 0
*RES
1 *814:X *384:10 19.9081 
2 *384:10 *455:B 16.1364 
3 *384:10 *384:21 13.4591 
4 *384:21 *499:B 13.7491 
5 *384:21 *384:30 13.4591 
6 *384:30 *500:B 13.7491 
7 *384:30 *384:43 22.4197 
8 *384:43 *470:B 13.5172 
9 *384:43 *502:B 9.24915 
*END

*D_NET *385 0.0136019
*CONN
*I *564:B I *D sky130_fd_sc_hd__nand2_1
*I *572:B I *D sky130_fd_sc_hd__nand4_1
*I *510:B I *D sky130_fd_sc_hd__and2_4
*I *576:A2 I *D sky130_fd_sc_hd__a21oi_1
*I *509:B I *D sky130_fd_sc_hd__and2_1
*I *472:B I *D sky130_fd_sc_hd__nand2_2
*I *508:B I *D sky130_fd_sc_hd__and2_1
*I *815:X O *D sky130_fd_sc_hd__buf_6
*CAP
1 *564:B 4.14826e-05
2 *572:B 0.000142695
3 *510:B 0.000368869
4 *576:A2 2.06983e-05
5 *509:B 0
6 *472:B 0.000346736
7 *508:B 2.40228e-05
8 *815:X 0.000448463
9 *385:90 0.00101399
10 *385:84 0.00105885
11 *385:61 0.000934046
12 *385:33 0.000743479
13 *385:23 0.00141194
14 *385:8 0.00108928
15 *472:B *469:A 0
16 *510:B *510:A 2.16355e-05
17 *510:B *386:8 2.57847e-05
18 *385:23 *587:A 1.43848e-05
19 *385:23 *587:B 3.10135e-05
20 *385:23 *387:35 5.2068e-05
21 *385:33 *469:A 1.43848e-05
22 *385:33 *587:A 8.99518e-05
23 *385:61 *469:A 0
24 *385:61 *587:A 1.09551e-05
25 *385:61 *587:B 8.01687e-05
26 *443:B *472:B 0.000139367
27 *509:A *472:B 0.000117376
28 *509:A *385:33 0.000190579
29 *525:A *385:8 0.000605014
30 *527:A *385:8 0.000148017
31 *572:D *572:B 1.6732e-05
32 *572:D *385:90 0.000219946
33 *576:A1 *385:84 0.000315003
34 *576:B1 *576:A2 4.89392e-05
35 *577:A2 *564:B 3.00174e-06
36 *577:A2 *385:84 0.000131572
37 *577:C1 *385:61 5.57012e-05
38 *577:C1 *385:84 0.000139632
39 *588:B *385:33 6.50727e-05
40 *590:A2 *385:23 0.000107496
41 *590:B1 *385:23 6.7156e-05
42 *601:B *385:61 0.000219686
43 *609:A1 *385:8 1.77537e-06
44 *609:A1 *385:23 5.68225e-06
45 *609:A2 *385:23 0.0005502
46 *610:C1 *385:84 0
47 *642:B *385:8 1.07403e-05
48 *642:CIN *385:8 0
49 *643:A *472:B 4.70529e-05
50 *643:A *385:33 4.33776e-05
51 *643:B *385:61 0
52 *643:CIN *472:B 1.88152e-05
53 *644:A *385:8 0.00011815
54 *645:A *385:8 7.84205e-05
55 *645:A *385:23 3.87434e-05
56 *645:B *385:23 0.00011911
57 *653:A *385:23 2.83033e-05
58 *816:A *510:B 0.000253367
59 *835:A *385:8 0
60 *3:24 *385:8 5.16364e-05
61 *11:42 *472:B 0.000335569
62 *12:26 *472:B 0
63 *13:14 *385:8 0
64 *13:18 *508:B 0.000113968
65 *168:10 *385:23 0.00013592
66 *175:8 *385:61 0
67 *176:8 *576:A2 0.000112367
68 *177:10 *385:84 0.000164829
69 *288:26 *510:B 0.000156076
70 *295:24 *508:B 4.58003e-05
71 *307:22 *564:B 6.4309e-05
72 *307:22 *385:84 7.04109e-05
73 *362:8 *385:90 0.000425766
74 *372:27 *564:B 1.47716e-05
75 *382:32 *572:B 5.04829e-06
76 *384:30 *472:B 5.22654e-06
77 *384:43 *472:B 1.1246e-05
*RES
1 *815:X *385:8 29.6997 
2 *385:8 *508:B 15.0271 
3 *385:8 *385:23 23.8132 
4 *385:23 *385:33 9.83819 
5 *385:33 *472:B 28.8928 
6 *385:33 *509:B 9.24915 
7 *385:23 *385:61 15.631 
8 *385:61 *576:A2 15.0271 
9 *385:61 *385:84 24.1207 
10 *385:84 *385:90 13.6871 
11 *385:90 *510:B 18.3157 
12 *385:90 *572:B 11.6605 
13 *385:84 *564:B 15.1659 
*END

*D_NET *386 0.0052704
*CONN
*I *846:A I *D sky130_fd_sc_hd__buf_4
*I *847:A I *D sky130_fd_sc_hd__buf_4
*I *522:B I *D sky130_fd_sc_hd__and2_4
*I *469:B I *D sky130_fd_sc_hd__nand2_1
*I *816:X O *D sky130_fd_sc_hd__buf_6
*CAP
1 *846:A 0.000496045
2 *847:A 0
3 *522:B 0.000627897
4 *469:B 0.000362588
5 *816:X 2.71395e-05
6 *386:32 0.000617088
7 *386:10 0.0011207
8 *386:8 0.000278394
9 *469:B *469:A 5.03545e-06
10 *522:B *828:A 8.39223e-05
11 *522:B *398:66 6.36205e-05
12 *846:A *498:A 5.83478e-05
13 *510:B *386:8 2.57847e-05
14 *522:A *522:B 4.6284e-05
15 *565:D *522:B 2.51345e-05
16 *565:D *386:10 4.70559e-05
17 *572:C *386:32 2.84898e-06
18 *573:A *469:B 8.62625e-06
19 *573:A *386:10 0.000230453
20 *573:A *386:32 0.000160001
21 *658:B *522:B 5.6848e-06
22 *674:A *846:A 0.000369197
23 *9:14 *469:B 0.000268334
24 *71:13 *469:B 0
25 *71:13 *386:10 0
26 *193:12 *469:B 0
27 *245:6 *846:A 0.00012376
28 *289:12 *469:B 0
29 *382:20 *846:A 0.000216458
30 *382:32 *846:A 0
*RES
1 *816:X *386:8 14.4725 
2 *386:8 *386:10 4.32351 
3 *386:10 *469:B 22.6404 
4 *386:10 *522:B 23.7802 
5 *386:8 *386:32 3.493 
6 *386:32 *847:A 13.7491 
7 *386:32 *846:A 28.2751 
*END

*D_NET *387 0.0179568
*CONN
*I *608:D I *D sky130_fd_sc_hd__nand4_4
*I *584:B1 I *D sky130_fd_sc_hd__a22oi_2
*I *556:B I *D sky130_fd_sc_hd__nand2_2
*I *547:B I *D sky130_fd_sc_hd__nand2_1
*I *535:B I *D sky130_fd_sc_hd__nand2_2
*I *460:B I *D sky130_fd_sc_hd__nand2_1
*I *587:B I *D sky130_fd_sc_hd__nand2_1
*I *604:A2 I *D sky130_fd_sc_hd__a221o_1
*I *817:X O *D sky130_fd_sc_hd__buf_6
*CAP
1 *608:D 3.04861e-05
2 *584:B1 0.000122083
3 *556:B 0.000583503
4 *547:B 0.000263782
5 *535:B 0
6 *460:B 0.000589556
7 *587:B 0.000248479
8 *604:A2 5.79458e-05
9 *817:X 0.000776368
10 *387:81 0.000443051
11 *387:77 0.00154456
12 *387:35 0.0009978
13 *387:33 0.00097762
14 *387:31 0.000353405
15 *387:29 0.000665429
16 *387:10 0.001274
17 *547:B *534:A 0.000111708
18 *547:B *398:42 5.0859e-05
19 *556:B *531:A 0.000195438
20 *556:B *389:79 8.42399e-05
21 *556:B *395:57 0.000219779
22 *556:B *397:10 6.46815e-05
23 *584:B1 *584:A1 3.60363e-05
24 *587:B *587:A 0.000118451
25 *387:10 *406:12 0.000570093
26 *387:10 *406:27 0.000542603
27 *387:10 *408:16 0.000130521
28 *387:29 *584:A1 3.07481e-05
29 *387:29 *584:B2 5.41377e-05
30 *387:29 *608:A 8.65358e-05
31 *387:29 *608:C 0
32 *387:29 *395:10 3.31733e-05
33 *387:29 *406:27 0.00020594
34 *387:29 *406:40 0
35 *387:31 *584:A1 2.20702e-05
36 *387:31 *584:B2 0.000451209
37 *460:A *460:B 4.76161e-06
38 *463:B *387:10 1.06049e-05
39 *465:A *460:B 1.65872e-05
40 *467:A2 *460:B 2.51064e-05
41 *467:A3 *460:B 6.87335e-05
42 *467:C1 *460:B 8.36586e-06
43 *471:A *387:10 7.00887e-05
44 *535:A *387:81 2.16355e-05
45 *537:A *556:B 5.04829e-06
46 *537:A *387:81 2.58616e-05
47 *539:A2 *387:77 6.87335e-05
48 *571:B *387:77 0.000264968
49 *574:A1 *387:77 0.000165488
50 *576:B1 *387:77 0.000383561
51 *577:A1 *387:77 0
52 *577:A2 *387:77 0
53 *585:A *387:77 6.43474e-05
54 *590:A2 *460:B 0.000199597
55 *590:A2 *587:B 2.16355e-05
56 *590:A2 *387:35 1.65872e-05
57 *590:C1 *387:77 0.000333062
58 *591:A2 *387:77 0.000209975
59 *601:A *460:B 0.000527667
60 *601:B *460:B 0
61 *602:B *604:A2 6.27718e-05
62 *602:B *387:10 6.38519e-05
63 *602:B *387:29 2.42438e-05
64 *604:B1 *604:A2 2.81378e-05
65 *610:B1 *387:77 1.91391e-05
66 *610:B2 *387:77 0.000451702
67 *636:CIN *460:B 3.00835e-06
68 *640:A *556:B 6.27782e-05
69 *643:B *587:B 0
70 *801:A *387:77 0.00010823
71 *809:A *387:10 0.000127179
72 *817:A *387:10 0.000542423
73 *11:14 *556:B 3.186e-05
74 *11:32 *556:B 7.20028e-05
75 *15:12 *387:10 0
76 *81:8 *460:B 0.000208621
77 *85:22 *460:B 2.26957e-05
78 *126:6 *387:81 2.58757e-05
79 *128:12 *387:81 1.86908e-05
80 *136:8 *547:B 6.78596e-05
81 *167:10 *387:77 5.71849e-05
82 *168:10 *387:77 0.000101148
83 *191:8 *584:B1 2.57986e-05
84 *191:8 *387:31 0.000497858
85 *288:14 *387:77 1.32043e-05
86 *288:20 *547:B 3.79755e-05
87 *288:20 *387:81 0.00025233
88 *289:12 *547:B 3.82887e-05
89 *307:22 *547:B 0.000271044
90 *372:27 *387:77 0
91 *375:10 *387:10 0.00010898
92 *385:23 *587:B 3.10135e-05
93 *385:23 *387:35 5.2068e-05
94 *385:61 *587:B 8.01687e-05
*RES
1 *817:X *387:10 45.0963 
2 *387:10 *604:A2 15.3044 
3 *387:10 *387:29 16.5288 
4 *387:29 *387:31 7.93324 
5 *387:31 *387:33 0.723396 
6 *387:33 *387:35 3.49641 
7 *387:35 *587:B 23.9098 
8 *387:35 *460:B 34.1198 
9 *387:33 *387:77 38.7272 
10 *387:77 *387:81 5.59426 
11 *387:81 *535:B 9.24915 
12 *387:81 *547:B 17.7852 
13 *387:77 *556:B 33.9729 
14 *387:31 *584:B1 13.059 
15 *387:29 *608:D 10.2378 
*END

*D_NET *15 0.00832246
*CONN
*I *527:A I *D sky130_fd_sc_hd__and2_4
*I *835:A I *D sky130_fd_sc_hd__buf_4
*I *524:A I *D sky130_fd_sc_hd__and2_1
*I *519:A I *D sky130_fd_sc_hd__and2_1
*I *836:A I *D sky130_fd_sc_hd__buf_4
*I *750:X O *D sky130_fd_sc_hd__buf_6
*CAP
1 *527:A 6.79129e-05
2 *835:A 0.000381141
3 *524:A 0
4 *519:A 0.000263861
5 *836:A 0
6 *750:X 0.00049296
7 *15:40 0.00040242
8 *15:25 0.000441966
9 *15:23 0.000826374
10 *15:12 0.0010946
11 *519:A *638:CIN 0.0010363
12 *519:A *670:A 4.43331e-05
13 *519:A *384:21 0.000138334
14 *527:A *642:B 9.29919e-05
15 *527:A *385:8 0.000148017
16 *835:A *647:CIN 3.16904e-05
17 *835:A *284:20 0.000577663
18 *835:A *385:8 0
19 *835:A *405:6 0.000118166
20 *15:12 *463:A 2.82537e-05
21 *15:12 *642:A 3.44412e-06
22 *15:12 *750:A 0.000122378
23 *15:12 *84:8 0.000320898
24 *15:12 *387:10 0
25 *15:12 *391:10 0
26 *15:23 *642:CIN 0.000110458
27 *15:23 *290:24 6.27782e-05
28 *15:25 *638:CIN 0.000112361
29 *15:25 *644:B 6.46815e-05
30 *15:25 *645:A 6.27718e-05
31 *439:B *519:A 6.46815e-05
32 *457:B *519:A 3.54435e-05
33 *457:B *835:A 6.27718e-05
34 *457:B *15:25 1.65872e-05
35 *817:A *15:12 0
36 *3:14 *15:12 7.7321e-05
37 *3:24 *527:A 2.44579e-05
38 *3:24 *835:A 0
39 *4:12 *15:23 4.55633e-05
40 *4:12 *15:25 1.34372e-05
41 *4:18 *15:25 8.87207e-05
42 *13:14 *15:12 0
43 *13:30 *519:A 0.000846732
*RES
1 *750:X *15:12 32.5709 
2 *15:12 *836:A 9.24915 
3 *15:12 *15:23 9.91053 
4 *15:23 *15:25 5.16022 
5 *15:25 *519:A 32.7271 
6 *15:25 *15:40 0.578717 
7 *15:40 *524:A 9.24915 
8 *15:40 *835:A 30.9422 
9 *15:23 *527:A 20.9116 
*END

*D_NET *388 0.013666
*CONN
*I *534:B I *D sky130_fd_sc_hd__nand2_1
*I *623:B I *D sky130_fd_sc_hd__and2_1
*I *531:B I *D sky130_fd_sc_hd__and2_4
*I *559:B I *D sky130_fd_sc_hd__nand2_2
*I *583:B I *D sky130_fd_sc_hd__nand2_2
*I *459:D I *D sky130_fd_sc_hd__nand4_1
*I *462:B I *D sky130_fd_sc_hd__nand2_2
*I *818:X O *D sky130_fd_sc_hd__buf_8
*CAP
1 *534:B 0
2 *623:B 3.41599e-05
3 *531:B 0
4 *559:B 0
5 *583:B 0.000146538
6 *459:D 7.98821e-05
7 *462:B 5.43736e-05
8 *818:X 0.000577534
9 *388:109 0.000885942
10 *388:76 0.00162116
11 *388:67 0.00111446
12 *388:48 0.000767544
13 *388:33 0.00059172
14 *388:16 0.000867821
15 *459:D *459:A 6.64392e-05
16 *459:D *459:C 6.2497e-05
17 *462:B *391:18 2.41274e-06
18 *583:B *583:A 0.00021217
19 *623:B *498:A 0.000224381
20 *623:B *534:A 0.000113968
21 *388:16 *389:32 0.000153225
22 *388:16 *391:18 5.51483e-06
23 *388:16 *406:12 6.09602e-05
24 *388:33 *391:18 3.88352e-05
25 *388:33 *394:16 0.000161994
26 *388:48 *584:B2 0.000122083
27 *388:48 *391:33 3.72244e-05
28 *388:48 *394:16 1.07549e-05
29 *388:48 *408:24 5.36397e-05
30 *388:48 *408:37 6.42805e-05
31 *388:67 *583:A 0.00029284
32 *388:67 *394:31 1.44467e-05
33 *388:67 *394:46 6.91172e-05
34 *388:67 *395:10 1.50262e-05
35 *388:67 *395:44 3.64941e-05
36 *388:76 *394:46 8.43738e-05
37 *388:76 *395:44 3.44412e-06
38 *388:76 *395:57 0.000261393
39 *388:76 *399:40 0
40 *388:109 *498:A 6.08467e-05
41 *388:109 *532:A 3.49805e-05
42 *388:109 *534:A 4.66492e-05
43 *388:109 *545:B1 0.000216458
44 *388:109 *389:89 0.000118166
45 *388:109 *389:95 2.28684e-05
46 *388:109 *395:57 7.56859e-06
47 *388:109 *395:59 0.000224409
48 *388:109 *399:40 0.000266832
49 *459:B *388:33 0.000114659
50 *463:A *388:16 0.000388806
51 *463:B *388:16 0.000362164
52 *464:B *388:16 6.08467e-05
53 *464:C *388:16 9.74619e-05
54 *537:A *388:109 1.5714e-05
55 *540:B1 *388:109 1.91391e-05
56 *545:A3 *388:109 0.000150368
57 *560:S *388:76 5.39463e-05
58 *563:A2 *388:76 0.000124086
59 *569:A *388:76 0.000191541
60 *570:B1 *388:76 5.04734e-05
61 *585:B *583:B 4.58907e-05
62 *609:B1 *388:33 1.33319e-05
63 *609:B1 *388:48 7.00289e-05
64 *610:B1 *462:B 1.61631e-05
65 *640:A *388:76 0.000146652
66 *808:A *388:16 6.50727e-05
67 *11:14 *388:109 0.000123597
68 *12:26 *388:67 4.29872e-05
69 *13:18 *462:B 2.65667e-05
70 *13:75 *388:33 0.00014977
71 *80:6 *459:D 6.64392e-05
72 *84:8 *388:16 7.79607e-05
73 *85:22 *388:16 4.27003e-05
74 *131:16 *388:109 0.000319645
75 *187:6 *459:D 8.12984e-05
76 *234:14 *388:109 6.14051e-05
77 *294:22 *388:16 1.28326e-05
78 *295:24 *462:B 4.0752e-05
79 *295:24 *388:16 3.14978e-05
80 *295:24 *388:33 7.04109e-05
81 *307:22 *388:109 6.61114e-05
82 *375:10 *388:16 8.33549e-05
83 *378:12 *388:16 2.65667e-05
84 *380:18 *388:48 0.000383255
85 *382:32 *623:B 6.50586e-05
*RES
1 *818:X *388:16 39.8234 
2 *388:16 *462:B 11.1059 
3 *388:16 *388:33 12.2113 
4 *388:33 *459:D 17.2697 
5 *388:33 *388:48 15.0523 
6 *388:48 *583:B 13.3243 
7 *388:48 *388:67 13.7561 
8 *388:67 *559:B 13.7491 
9 *388:67 *388:76 23.8404 
10 *388:76 *531:B 13.7491 
11 *388:76 *388:109 37.1546 
12 *388:109 *623:B 11.6364 
13 *388:109 *534:B 9.24915 
*END

*D_NET *389 0.0161033
*CONN
*I *461:B I *D sky130_fd_sc_hd__nand2_1
*I *625:B I *D sky130_fd_sc_hd__and2_1
*I *533:B I *D sky130_fd_sc_hd__nand2_1
*I *503:B I *D sky130_fd_sc_hd__and2_1
*I *449:B I *D sky130_fd_sc_hd__and2_1
*I *540:A2 I *D sky130_fd_sc_hd__a21oi_2
*I *555:B I *D sky130_fd_sc_hd__nand2_2
*I *581:B I *D sky130_fd_sc_hd__nand2_1
*I *459:C I *D sky130_fd_sc_hd__nand4_1
*I *819:X O *D sky130_fd_sc_hd__buf_4
*CAP
1 *461:B 0
2 *625:B 0
3 *533:B 3.4452e-05
4 *503:B 1.08844e-05
5 *449:B 0.000103597
6 *540:A2 7.16025e-05
7 *555:B 0
8 *581:B 0.000247107
9 *459:C 0.000192467
10 *819:X 0.000197085
11 *389:114 0.000801418
12 *389:95 0.00109715
13 *389:89 0.00105398
14 *389:79 0.00131276
15 *389:62 0.000975403
16 *389:47 0.000978761
17 *389:32 0.0010162
18 *389:8 0.000632728
19 *449:B *449:A 0.000246221
20 *459:C *459:A 0.000207883
21 *459:C *394:16 1.58551e-05
22 *503:B *449:A 1.09551e-05
23 *533:B *397:46 6.08467e-05
24 *533:B *399:57 2.65831e-05
25 *540:A2 *397:46 9.32927e-05
26 *581:B *581:A 0.000164044
27 *581:B *391:33 0.000144391
28 *389:8 *406:27 0.000111722
29 *389:47 *604:A1 3.19936e-05
30 *389:47 *391:33 0.000294697
31 *389:47 *394:31 0.000528255
32 *389:47 *394:46 0.00013382
33 *389:62 *395:44 8.62474e-06
34 *389:62 *395:57 2.50929e-05
35 *389:79 *556:A 1.99131e-05
36 *389:79 *395:57 6.42647e-05
37 *389:89 *395:57 0.000102003
38 *389:89 *395:59 6.50727e-05
39 *389:89 *397:10 0
40 *389:89 *397:27 0
41 *389:95 *397:46 1.91246e-05
42 *389:114 *449:A 9.65932e-05
43 *389:114 *504:B 0.000519967
44 *389:114 *398:14 4.0752e-05
45 *389:114 *399:67 0.000167266
46 *459:B *459:C 0.000161252
47 *459:D *459:C 6.2497e-05
48 *464:A *389:8 6.50586e-05
49 *539:A2 *533:B 4.04556e-05
50 *539:B1 *540:A2 3.37757e-05
51 *542:A2 *540:A2 0.000166331
52 *542:A2 *389:95 1.04747e-05
53 *544:A *389:114 0.000129436
54 *546:A1 *389:114 6.08467e-05
55 *556:B *389:79 8.42399e-05
56 *560:A0 *389:79 0.000130777
57 *561:C *389:79 0.000200236
58 *578:A *389:62 0.000141677
59 *580:A2 *389:62 0.000139817
60 *580:A2 *389:79 0.000164809
61 *582:A *581:B 3.30668e-05
62 *604:B2 *459:C 3.5063e-05
63 *604:B2 *389:32 7.30595e-05
64 *604:B2 *389:47 3.44412e-06
65 *604:C1 *389:32 7.88217e-05
66 *604:C1 *389:47 4.53418e-05
67 *640:B *389:79 0.000273939
68 *640:CIN *389:79 0.000400601
69 *819:A *389:8 6.08467e-05
70 *2:14 *389:8 5.08751e-05
71 *11:14 *389:89 4.44602e-05
72 *85:22 *389:32 7.2332e-05
73 *125:36 *533:B 4.04556e-05
74 *131:16 *389:95 1.469e-05
75 *142:17 *389:62 7.05004e-05
76 *142:17 *389:79 0.000176652
77 *142:32 *389:79 0.000213814
78 *143:10 *389:79 0.000192693
79 *143:29 *389:79 0
80 *146:10 *389:62 4.89251e-05
81 *294:22 *389:32 1.45799e-05
82 *375:10 *389:32 0.000153225
83 *378:12 *389:32 0.00019516
84 *388:16 *389:32 0.000153225
85 *388:109 *389:89 0.000118166
86 *388:109 *389:95 2.28684e-05
*RES
1 *819:X *389:8 14.4335 
2 *389:8 *389:32 27.0859 
3 *389:32 *459:C 19.4881 
4 *389:32 *389:47 18.3743 
5 *389:47 *581:B 15.5427 
6 *389:47 *389:62 13.9837 
7 *389:62 *555:B 13.7491 
8 *389:62 *389:79 30.7933 
9 *389:79 *389:89 14.1075 
10 *389:89 *389:95 4.48569 
11 *389:95 *540:A2 16.8269 
12 *389:95 *389:114 24.1523 
13 *389:114 *449:B 12.9385 
14 *389:114 *503:B 9.82786 
15 *389:89 *533:B 18.6352 
16 *389:79 *625:B 9.24915 
17 *389:8 *461:B 9.24915 
*END

*D_NET *390 0.00108177
*CONN
*I *433:B I *D sky130_fd_sc_hd__and2_1
*I *444:A I *D sky130_fd_sc_hd__and2_1
*I *820:X O *D sky130_fd_sc_hd__buf_4
*CAP
1 *433:B 0.000115871
2 *444:A 2.92279e-05
3 *820:X 2.62942e-05
4 *390:6 0.000171394
5 *437:A *433:B 0
6 *444:B *433:B 0.000122098
7 *649:A *444:A 0.000169862
8 *649:A *390:6 0.000217951
9 *649:CIN *444:A 6.65203e-05
10 *649:CIN *390:6 9.39797e-05
11 *650:B *433:B 0
12 *814:A *433:B 0
13 *820:A *433:B 1.44467e-05
14 *7:10 *433:B 5.41227e-05
15 *8:14 *433:B 0
*RES
1 *820:X *390:6 11.6364 
2 *390:6 *444:A 11.0817 
3 *390:6 *433:B 21.7421 
*END

*D_NET *405 0.00251133
*CONN
*I *506:A I *D sky130_fd_sc_hd__and2_1
*I *447:A I *D sky130_fd_sc_hd__and2_1
*I *435:B I *D sky130_fd_sc_hd__and2_1
*I *835:X O *D sky130_fd_sc_hd__buf_4
*CAP
1 *506:A 0
2 *447:A 0
3 *435:B 0.000193709
4 *835:X 0.000138987
5 *405:12 0.00050211
6 *405:6 0.000447388
7 *437:A *405:12 0
8 *454:B *405:12 0.000178236
9 *505:B *405:12 5.56461e-05
10 *506:B *405:6 0.000118166
11 *506:B *405:12 1.67988e-05
12 *639:A *405:12 0.000217937
13 *639:B *405:12 6.3657e-05
14 *649:A *435:B 6.75138e-05
15 *649:CIN *435:B 0.000122378
16 *650:A *435:B 0
17 *667:B *435:B 7.87126e-05
18 *835:A *405:6 0.000118166
19 *7:37 *405:12 5.55213e-05
20 *383:24 *435:B 0
21 *383:35 *435:B 6.92705e-05
22 *392:12 *405:12 6.71362e-05
*RES
1 *835:X *405:6 13.3002 
2 *405:6 *405:12 10.1999 
3 *405:12 *435:B 24.1294 
4 *405:12 *447:A 9.24915 
5 *405:6 *506:A 9.24915 
*END

*D_NET *406 0.00653278
*CONN
*I *608:A I *D sky130_fd_sc_hd__nand4_4
*I *584:A1 I *D sky130_fd_sc_hd__a22oi_2
*I *458:A I *D sky130_fd_sc_hd__nand2_4
*I *461:A I *D sky130_fd_sc_hd__nand2_1
*I *836:X O *D sky130_fd_sc_hd__buf_4
*CAP
1 *608:A 0.000175643
2 *584:A1 0.000347921
3 *458:A 2.87124e-05
4 *461:A 0
5 *836:X 0.000291058
6 *406:40 0.000609539
7 *406:27 0.000572535
8 *406:12 0.000748905
9 *458:A *408:16 6.27782e-05
10 *458:A *408:20 1.41976e-05
11 *584:A1 *584:A2 6.08467e-05
12 *406:27 *408:16 0.000503609
13 *406:40 *608:C 0.000144531
14 *463:B *406:12 6.14436e-05
15 *584:B1 *584:A1 3.60363e-05
16 *584:B2 *584:A1 0.000347214
17 *584:B2 *608:A 0.000152878
18 *584:B2 *406:40 6.08697e-06
19 *602:A *406:27 0.000122992
20 *4:6 *406:12 5.04829e-06
21 *4:12 *406:12 6.13051e-05
22 *169:8 *584:A1 0.000181024
23 *191:8 *584:A1 0.000172652
24 *375:10 *406:12 0.000195154
25 *387:10 *406:12 0.000570093
26 *387:10 *406:27 0.000542603
27 *387:29 *584:A1 3.07481e-05
28 *387:29 *608:A 8.65358e-05
29 *387:29 *406:27 0.00020594
30 *387:29 *406:40 0
31 *387:31 *584:A1 2.20702e-05
32 *388:16 *406:12 6.09602e-05
33 *389:8 *406:27 0.000111722
*RES
1 *836:X *406:12 30.2188 
2 *406:12 *461:A 9.24915 
3 *406:12 *406:27 26.6789 
4 *406:27 *458:A 9.97254 
5 *406:27 *406:40 11.6625 
6 *406:40 *584:A1 19.6419 
7 *406:40 *608:A 14.4335 
*END

*D_NET *392 0.00197293
*CONN
*I *437:B I *D sky130_fd_sc_hd__and2_1
*I *454:A I *D sky130_fd_sc_hd__and2_1
*I *822:X O *D sky130_fd_sc_hd__buf_4
*CAP
1 *437:B 0.000303185
2 *454:A 1.36403e-05
3 *822:X 0.000270667
4 *392:12 0.000587493
5 *392:12 *405:12 6.71362e-05
6 *450:A *392:12 5.54078e-05
7 *454:B *437:B 8.24358e-05
8 *454:B *454:A 2.10212e-05
9 *454:B *392:12 2.99287e-05
10 *505:B *392:12 0.000118166
11 *506:B *392:12 6.50727e-05
12 *6:16 *392:12 0.000127194
13 *7:37 *437:B 0.000231582
*RES
1 *822:X *392:12 26.2112 
2 *392:12 *454:A 9.82786 
3 *392:12 *437:B 16.3143 
*END

*D_NET *391 0.00739365
*CONN
*I *462:A I *D sky130_fd_sc_hd__nand2_2
*I *568:A I *D sky130_fd_sc_hd__and2_2
*I *554:A I *D sky130_fd_sc_hd__nand2_1
*I *581:A I *D sky130_fd_sc_hd__nand2_1
*I *459:A I *D sky130_fd_sc_hd__nand4_1
*I *821:X O *D sky130_fd_sc_hd__buf_4
*CAP
1 *462:A 1.56245e-05
2 *568:A 1.14991e-05
3 *554:A 0
4 *581:A 5.62155e-05
5 *459:A 5.40557e-05
6 *821:X 0.000591455
7 *391:46 0.000214848
8 *391:33 0.000681903
9 *391:18 0.000791126
10 *391:10 0.00092181
11 *459:A *394:16 2.16355e-05
12 *568:A *554:B 6.27782e-05
13 *391:18 *394:16 0.000134976
14 *391:33 *394:16 4.53418e-05
15 *391:33 *394:46 3.87022e-06
16 *391:33 *408:24 0.000169063
17 *391:33 *408:37 0.000366643
18 *391:46 *408:37 9.81304e-05
19 *459:C *459:A 0.000207883
20 *459:D *459:A 6.64392e-05
21 *462:B *391:18 2.41274e-06
22 *464:B *462:A 5.92342e-05
23 *464:B *391:10 0.000127164
24 *464:B *391:18 7.72722e-05
25 *464:C *391:10 0
26 *581:B *581:A 0.000164044
27 *581:B *391:33 0.000144391
28 *604:C1 *391:18 0.00017561
29 *604:C1 *391:33 8.36586e-06
30 *610:B1 *391:33 0.000111636
31 *642:A *391:10 0.000146652
32 *800:A *568:A 6.27782e-05
33 *3:14 *391:10 8.07794e-05
34 *13:14 *462:A 2.24484e-05
35 *13:14 *391:10 0.000840883
36 *13:75 *462:A 3.31882e-05
37 *13:75 *391:18 9.57557e-06
38 *15:12 *391:10 0
39 *187:6 *459:A 1.54577e-05
40 *290:24 *391:10 8.66674e-05
41 *294:22 *391:10 0
42 *294:22 *391:18 9.58242e-05
43 *295:24 *391:18 7.04109e-05
44 *380:18 *391:46 0.000167286
45 *388:16 *391:18 5.51483e-06
46 *388:33 *391:18 3.88352e-05
47 *388:48 *391:33 3.72244e-05
48 *389:47 *391:33 0.000294697
*RES
1 *821:X *391:10 34.4391 
2 *391:10 *391:18 17.9235 
3 *391:18 *459:A 16.1364 
4 *391:18 *391:33 19.7917 
5 *391:33 *581:A 11.0817 
6 *391:33 *391:46 15.815 
7 *391:46 *554:A 9.24915 
8 *391:46 *568:A 9.97254 
9 *391:10 *462:A 14.7506 
*END

*D_NET *394 0.00510881
*CONN
*I *555:A I *D sky130_fd_sc_hd__nand2_2
*I *451:A I *D sky130_fd_sc_hd__and2_4
*I *583:A I *D sky130_fd_sc_hd__nand2_2
*I *604:A1 I *D sky130_fd_sc_hd__a221o_1
*I *824:X O *D sky130_fd_sc_hd__buf_4
*CAP
1 *555:A 0.000253901
2 *451:A 0
3 *583:A 0.000113193
4 *604:A1 0.00010639
5 *824:X 0.000170501
6 *394:46 0.00046648
7 *394:31 0.000586765
8 *394:16 0.000537884
9 *555:A *451:B 6.27718e-05
10 *394:31 *608:C 0.000218355
11 *394:31 *395:10 0
12 *394:46 *451:B 6.27782e-05
13 *459:A *394:16 2.16355e-05
14 *459:C *394:16 1.58551e-05
15 *583:B *583:A 0.00021217
16 *585:B *583:A 0.000114584
17 *602:B *604:A1 1.7387e-05
18 *604:B2 *604:A1 1.70606e-05
19 *604:B2 *394:16 1.57791e-05
20 *640:B *555:A 6.27718e-05
21 *12:26 *583:A 0.000147853
22 *87:10 *394:16 0.000107496
23 *187:6 *394:16 0.000203756
24 *294:22 *394:16 8.166e-05
25 *388:33 *394:16 0.000161994
26 *388:48 *394:16 1.07549e-05
27 *388:67 *583:A 0.00029284
28 *388:67 *394:31 1.44467e-05
29 *388:67 *394:46 6.91172e-05
30 *388:76 *394:46 8.43738e-05
31 *389:47 *604:A1 3.19936e-05
32 *389:47 *394:31 0.000528255
33 *389:47 *394:46 0.00013382
34 *391:18 *394:16 0.000134976
35 *391:33 *394:16 4.53418e-05
36 *391:33 *394:46 3.87022e-06
*RES
1 *824:X *394:16 29.9074 
2 *394:16 *604:A1 16.2162 
3 *394:16 *394:31 9.72179 
4 *394:31 *583:A 19.464 
5 *394:31 *394:46 11.6232 
6 *394:46 *451:A 9.24915 
7 *394:46 *555:A 14.9881 
*END

*D_NET *395 0.00971616
*CONN
*I *625:A I *D sky130_fd_sc_hd__and2_1
*I *532:A I *D sky130_fd_sc_hd__nand2_1
*I *545:C1 I *D sky130_fd_sc_hd__o311ai_1
*I *559:A I *D sky130_fd_sc_hd__nand2_2
*I *608:B I *D sky130_fd_sc_hd__nand4_4
*I *584:B2 I *D sky130_fd_sc_hd__a22oi_2
*I *825:X O *D sky130_fd_sc_hd__buf_6
*CAP
1 *625:A 0
2 *532:A 0.00024282
3 *545:C1 2.0031e-05
4 *559:A 0
5 *608:B 0
6 *584:B2 0.000752456
7 *825:X 0.000118038
8 *395:59 0.000399114
9 *395:57 0.000807997
10 *395:44 0.000769553
11 *395:10 0.000932237
12 *395:8 0.000395638
13 *532:A *532:B 1.56419e-05
14 *532:A *397:46 1.33571e-05
15 *532:A *399:57 6.51628e-05
16 *584:B2 *584:A1 0.000347214
17 *584:B2 *608:A 0.000152878
18 *584:B2 *608:C 0
19 *584:B2 *406:40 6.08697e-06
20 *584:B2 *408:24 5.05252e-05
21 *584:B2 *408:37 6.28484e-05
22 *395:57 *556:A 0.000217937
23 *395:59 *556:A 0.000271058
24 *545:A1 *532:A 0.000133098
25 *545:A2 *532:A 6.50727e-05
26 *545:A3 *532:A 4.1781e-05
27 *545:A3 *545:C1 3.11794e-06
28 *546:A2 *532:A 0.000207266
29 *556:B *395:57 0.000219779
30 *560:S *395:57 0.000127194
31 *563:A2 *395:57 5.3633e-05
32 *580:A2 *395:57 5.84419e-05
33 *609:A1 *584:B2 3.67708e-05
34 *640:A *395:57 6.00698e-05
35 *640:B *395:57 0.000984201
36 *801:A *584:B2 4.33979e-05
37 *11:14 *395:57 6.74811e-05
38 *12:14 *395:8 0.000228593
39 *12:26 *395:8 1.62206e-05
40 *126:29 *532:A 0.000136695
41 *168:10 *584:B2 8.37812e-05
42 *387:29 *584:B2 5.41377e-05
43 *387:29 *395:10 3.31733e-05
44 *387:31 *584:B2 0.000451209
45 *388:48 *584:B2 0.000122083
46 *388:67 *395:10 1.50262e-05
47 *388:67 *395:44 3.64941e-05
48 *388:76 *395:44 3.44412e-06
49 *388:76 *395:57 0.000261393
50 *388:109 *532:A 3.49805e-05
51 *388:109 *395:57 7.56859e-06
52 *388:109 *395:59 0.000224409
53 *389:62 *395:44 8.62474e-06
54 *389:62 *395:57 2.50929e-05
55 *389:79 *395:57 6.42647e-05
56 *389:89 *395:57 0.000102003
57 *389:89 *395:59 6.50727e-05
58 *394:31 *395:10 0
*RES
1 *825:X *395:8 17.2456 
2 *395:8 *395:10 4.32351 
3 *395:10 *584:B2 47.2897 
4 *395:10 *608:B 13.7491 
5 *395:8 *395:44 2.6625 
6 *395:44 *559:A 13.7491 
7 *395:44 *395:57 34.0496 
8 *395:57 *395:59 6.26943 
9 *395:59 *545:C1 9.82786 
10 *395:59 *532:A 26.8435 
11 *395:57 *625:A 9.24915 
*END

*D_NET *393 0.00177663
*CONN
*I *587:A I *D sky130_fd_sc_hd__nand2_1
*I *469:A I *D sky130_fd_sc_hd__nand2_1
*I *823:X O *D sky130_fd_sc_hd__buf_4
*CAP
1 *587:A 0.000205176
2 *469:A 0.000418379
3 *823:X 0
4 *393:4 0.000623554
5 *469:B *469:A 5.03545e-06
6 *472:B *469:A 0
7 *509:A *587:A 4.80635e-06
8 *587:B *587:A 0.000118451
9 *643:B *469:A 0.000123582
10 *12:26 *469:A 0.000144531
11 *176:16 *469:A 3.44412e-06
12 *385:23 *587:A 1.43848e-05
13 *385:33 *469:A 1.43848e-05
14 *385:33 *587:A 8.99518e-05
15 *385:61 *469:A 0
16 *385:61 *587:A 1.09551e-05
*RES
1 *823:X *393:4 9.24915 
2 *393:4 *469:A 29.1096 
3 *393:4 *587:A 15.4221 
*END

*D_NET *16 0.00882006
*CONN
*I *463:A I *D sky130_fd_sc_hd__nand2_1
*I *624:A I *D sky130_fd_sc_hd__and2_4
*I *526:A I *D sky130_fd_sc_hd__and2_1
*I *457:A I *D sky130_fd_sc_hd__nand2_2
*I *518:A I *D sky130_fd_sc_hd__and2_1
*I *505:A I *D sky130_fd_sc_hd__and2_1
*I *820:A I *D sky130_fd_sc_hd__buf_4
*I *751:X O *D sky130_fd_sc_hd__buf_8
*CAP
1 *463:A 0.00032853
2 *624:A 0
3 *526:A 0
4 *457:A 2.19654e-05
5 *518:A 5.86461e-05
6 *505:A 0.000136092
7 *820:A 0.000146005
8 *751:X 0.000679296
9 *16:74 0.000690398
10 *16:63 0.000439854
11 *16:54 0.000600878
12 *16:39 0.000841523
13 *16:26 0.000951334
14 *457:A *78:12 6.27718e-05
15 *463:A *642:A 2.16355e-05
16 *463:A *84:8 0.000508858
17 *463:A *388:16 0.000388806
18 *505:A *637:A 0.000372379
19 *505:A *667:A 0.000200236
20 *505:A *667:B 0
21 *518:A *635:CIN 6.55651e-05
22 *820:A *433:B 1.44467e-05
23 *820:A *650:B 0
24 *820:A *672:A 1.77537e-06
25 *820:A *672:B 2.69064e-05
26 *16:26 *670:A 2.24708e-05
27 *16:26 *384:10 8.28869e-05
28 *16:39 *635:CIN 8.36586e-06
29 *16:39 *636:B 0.000152146
30 *16:39 *637:A 0.000354895
31 *16:39 *78:12 1.02917e-05
32 *16:54 *78:12 0.00054641
33 *16:74 *642:B 6.94204e-06
34 *16:74 *644:A 6.27782e-05
35 *463:B *463:A 7.06474e-05
36 *520:B *518:A 6.27718e-05
37 *520:B *16:54 3.68716e-05
38 *525:B *457:A 0.000109421
39 *526:B *16:74 0.000205666
40 *624:B *463:A 0.000302956
41 *814:A *820:A 0
42 *814:A *16:26 7.48797e-05
43 *817:A *463:A 0
44 *3:24 *16:74 6.27718e-05
45 *5:35 *518:A 4.40102e-05
46 *14:43 *16:39 1.67286e-05
47 *15:12 *463:A 2.82537e-05
*RES
1 *751:X *820:A 30.9913 
2 *751:X *16:26 26.6979 
3 *16:26 *505:A 20.1489 
4 *16:26 *16:39 12.976 
5 *16:39 *518:A 11.6846 
6 *16:39 *16:54 8.92188 
7 *16:54 *457:A 10.5271 
8 *16:54 *16:63 1.8326 
9 *16:63 *526:A 9.24915 
10 *16:63 *16:74 8.946 
11 *16:74 *624:A 9.24915 
12 *16:74 *463:A 32.4372 
*END

*D_NET *407 0.00141656
*CONN
*I *441:B I *D sky130_fd_sc_hd__and2_1
*I *499:A I *D sky130_fd_sc_hd__and2_1
*I *837:X O *D sky130_fd_sc_hd__buf_4
*CAP
1 *441:B 0.000152122
2 *499:A 0.000118603
3 *837:X 0.000195855
4 *407:6 0.000466581
5 *441:A *441:B 6.64392e-05
6 *653:A *499:A 8.65358e-05
7 *653:A *407:6 0.000174699
8 *837:A *407:6 6.50727e-05
9 *208:14 *441:B 4.58907e-05
10 *384:21 *441:B 4.47578e-05
*RES
1 *837:X *407:6 14.4094 
2 *407:6 *499:A 12.2151 
3 *407:6 *441:B 22.7442 
*END

*D_NET *397 0.00659113
*CONN
*I *531:A I *D sky130_fd_sc_hd__and2_4
*I *540:A1 I *D sky130_fd_sc_hd__a21oi_2
*I *498:A I *D sky130_fd_sc_hd__and2_2
*I *533:A I *D sky130_fd_sc_hd__nand2_1
*I *556:A I *D sky130_fd_sc_hd__nand2_2
*I *827:X O *D sky130_fd_sc_hd__buf_4
*CAP
1 *531:A 3.58083e-05
2 *540:A1 6.28196e-05
3 *498:A 0.000401073
4 *533:A 0
5 *556:A 0.000283668
6 *827:X 0
7 *397:46 0.000951148
8 *397:27 0.000817945
9 *397:10 0.00079979
10 *397:4 0.000221241
11 *498:A *534:A 1.65872e-05
12 *397:10 *399:40 0.000102484
13 *397:27 *399:57 0.000113436
14 *397:46 *399:57 1.32244e-05
15 *397:46 *399:67 3.58463e-05
16 *532:A *397:46 1.33571e-05
17 *533:B *397:46 6.08467e-05
18 *539:A2 *397:27 0
19 *539:B1 *397:46 7.14746e-05
20 *540:A2 *397:46 9.32927e-05
21 *542:A2 *397:46 1.76936e-05
22 *544:A *397:46 1.89545e-06
23 *544:B *397:46 9.24075e-05
24 *546:A2 *498:A 1.53125e-05
25 *546:A2 *540:A1 0.000107074
26 *556:B *531:A 0.000195438
27 *556:B *397:10 6.46815e-05
28 *623:B *498:A 0.000224381
29 *640:CIN *556:A 6.11359e-06
30 *846:A *498:A 5.83478e-05
31 *11:14 *531:A 9.28161e-05
32 *11:14 *397:10 2.58757e-05
33 *11:14 *397:27 0
34 *128:12 *397:46 1.83627e-05
35 *234:14 *498:A 6.08467e-05
36 *245:6 *498:A 0.000619031
37 *382:20 *498:A 0.000267404
38 *382:32 *498:A 4.05313e-05
39 *388:109 *498:A 6.08467e-05
40 *389:79 *556:A 1.99131e-05
41 *389:89 *397:10 0
42 *389:89 *397:27 0
43 *389:95 *397:46 1.91246e-05
44 *395:57 *556:A 0.000217937
45 *395:59 *556:A 0.000271058
*RES
1 *827:X *397:4 9.24915 
2 *397:4 *397:10 9.5469 
3 *397:10 *556:A 21.5618 
4 *397:10 *397:27 12.738 
5 *397:27 *533:A 9.24915 
6 *397:27 *397:46 18.9795 
7 *397:46 *498:A 22.7767 
8 *397:46 *540:A1 11.5399 
9 *397:4 *531:A 11.6364 
*END

*D_NET *398 0.00720608
*CONN
*I *566:A I *D sky130_fd_sc_hd__nand2_1
*I *565:A I *D sky130_fd_sc_hd__nand4_1
*I *534:A I *D sky130_fd_sc_hd__nand2_1
*I *547:A I *D sky130_fd_sc_hd__nand2_1
*I *504:A I *D sky130_fd_sc_hd__and2_2
*I *449:A I *D sky130_fd_sc_hd__and2_1
*I *828:X O *D sky130_fd_sc_hd__buf_4
*CAP
1 *566:A 7.52784e-05
2 *565:A 0
3 *534:A 0.000212677
4 *547:A 0
5 *504:A 0
6 *449:A 0.000111928
7 *828:X 0
8 *398:66 0.00018202
9 *398:42 0.000344237
10 *398:14 0.000364597
11 *398:8 0.000740903
12 *398:4 0.000463416
13 *566:A *566:B 6.50727e-05
14 *398:14 *498:B 0.000135738
15 *398:14 *504:B 0.000317679
16 *449:B *449:A 0.000246221
17 *498:A *534:A 1.65872e-05
18 *503:A *449:A 2.19102e-05
19 *503:B *449:A 1.09551e-05
20 *522:B *398:66 6.36205e-05
21 *546:A2 *534:A 0
22 *547:B *534:A 0.000111708
23 *547:B *398:42 5.0859e-05
24 *565:C *566:A 4.88955e-05
25 *565:C *398:66 0.000164829
26 *565:D *566:A 0.000169041
27 *565:D *398:66 0.000318974
28 *571:C *566:A 1.61631e-05
29 *623:B *534:A 0.000113968
30 *658:B *566:A 3.34025e-05
31 *658:B *398:66 0.000108388
32 *674:B *449:A 1.65872e-05
33 *802:A *566:A 0
34 *71:13 *398:8 0.000523303
35 *71:13 *398:14 0.00036196
36 *136:8 *398:42 7.65364e-05
37 *153:6 *566:A 2.65831e-05
38 *234:14 *534:A 0
39 *289:12 *534:A 3.96696e-05
40 *289:12 *398:42 0.000416506
41 *307:22 *534:A 4.27003e-05
42 *382:20 *398:14 1.51628e-05
43 *382:32 *534:A 0.000144546
44 *382:91 *449:A 0.000305848
45 *382:91 *398:14 0.000401287
46 *382:99 *449:A 0.000142328
47 *388:109 *534:A 4.66492e-05
48 *389:114 *449:A 9.65932e-05
49 *389:114 *398:14 4.0752e-05
*RES
1 *828:X *398:4 9.24915 
2 *398:4 *398:8 14.2218 
3 *398:8 *398:14 15.9206 
4 *398:14 *449:A 17.0136 
5 *398:14 *504:A 9.24915 
6 *398:8 *398:42 10.4171 
7 *398:42 *547:A 9.24915 
8 *398:42 *534:A 25.1556 
9 *398:4 *398:66 5.71483 
10 *398:66 *565:A 9.24915 
11 *398:66 *566:A 12.7697 
*END

*D_NET *396 0.00258805
*CONN
*I *510:A I *D sky130_fd_sc_hd__and2_4
*I *828:A I *D sky130_fd_sc_hd__buf_4
*I *470:A I *D sky130_fd_sc_hd__nand2_2
*I *826:X O *D sky130_fd_sc_hd__buf_4
*CAP
1 *510:A 0.000129967
2 *828:A 4.72645e-05
3 *470:A 0
4 *826:X 0.000231896
5 *396:19 0.000261797
6 *396:10 0.000316461
7 *510:B *510:A 2.16355e-05
8 *522:A *828:A 0.000211492
9 *522:B *828:A 8.39223e-05
10 *598:A2 *396:10 0
11 *600:A0 *396:10 1.77537e-06
12 *641:A *510:A 0.000124192
13 *664:B *396:10 0.000393863
14 *826:A *396:10 6.08467e-05
15 *5:16 *510:A 0.000188554
16 *5:16 *396:10 0.000184946
17 *5:16 *396:19 0.000163982
18 *193:14 *396:10 5.13447e-05
19 *265:18 *510:A 1.38872e-05
20 *265:18 *396:10 2.72089e-05
21 *265:18 *396:19 3.94229e-05
22 *288:26 *510:A 1.1957e-05
23 *377:10 *396:10 2.16355e-05
*RES
1 *826:X *396:10 21.8478 
2 *396:10 *470:A 13.7491 
3 *396:10 *396:19 3.07775 
4 *396:19 *828:A 16.1364 
5 *396:19 *510:A 18.5201 
*END

*D_NET *399 0.00877468
*CONN
*I *532:B I *D sky130_fd_sc_hd__nand2_1
*I *626:B I *D sky130_fd_sc_hd__and2_2
*I *504:B I *D sky130_fd_sc_hd__and2_2
*I *498:B I *D sky130_fd_sc_hd__and2_2
*I *545:B1 I *D sky130_fd_sc_hd__o311ai_1
*I *568:B I *D sky130_fd_sc_hd__and2_2
*I *554:B I *D sky130_fd_sc_hd__nand2_1
*I *829:X O *D sky130_fd_sc_hd__buf_4
*CAP
1 *532:B 1.32609e-05
2 *626:B 0
3 *504:B 7.04492e-05
4 *498:B 0.000178248
5 *545:B1 0.000134947
6 *568:B 0
7 *554:B 0.000142037
8 *829:X 0.000150473
9 *399:82 0.000117857
10 *399:67 0.000977332
11 *399:57 0.00122479
12 *399:40 0.0014994
13 *399:14 0.00016582
14 *399:10 0.00107886
15 *399:10 *451:B 6.46815e-05
16 *532:A *532:B 1.56419e-05
17 *532:A *399:57 6.51628e-05
18 *533:B *399:57 2.65831e-05
19 *539:A2 *399:57 0
20 *544:A *532:B 0
21 *544:A *399:67 8.51601e-06
22 *546:A1 *399:67 6.08467e-05
23 *563:B1 *399:40 5.10045e-05
24 *568:A *554:B 6.27782e-05
25 *569:A *399:40 5.20375e-05
26 *570:A1 *399:40 0.000304998
27 *570:B1 *399:40 5.39463e-05
28 *800:A *554:B 6.26152e-05
29 *800:A *399:40 1.70077e-05
30 *165:6 *554:B 9.81288e-06
31 *165:6 *399:14 2.58616e-05
32 *382:20 *498:B 0.000132607
33 *382:91 *498:B 3.07848e-05
34 *382:91 *504:B 7.74146e-05
35 *382:91 *399:82 9.9774e-06
36 *388:76 *399:40 0
37 *388:109 *545:B1 0.000216458
38 *388:109 *399:40 0.000266832
39 *389:114 *504:B 0.000519967
40 *389:114 *399:67 0.000167266
41 *397:10 *399:40 0.000102484
42 *397:27 *399:57 0.000113436
43 *397:46 *399:57 1.32244e-05
44 *397:46 *399:67 3.58463e-05
45 *398:14 *498:B 0.000135738
46 *398:14 *504:B 0.000317679
*RES
1 *829:X *399:10 17.135 
2 *399:10 *399:14 5.2234 
3 *399:14 *554:B 13.3484 
4 *399:14 *568:B 9.24915 
5 *399:10 *399:40 27.6182 
6 *399:40 *545:B1 11.6364 
7 *399:40 *399:57 19.2018 
8 *399:57 *399:67 13.3105 
9 *399:67 *498:B 22.7442 
10 *399:67 *399:82 1.39857 
11 *399:82 *504:B 14.964 
12 *399:82 *626:B 9.24915 
13 *399:57 *532:B 9.82786 
*END

*D_NET *408 0.00612428
*CONN
*I *608:C I *D sky130_fd_sc_hd__nand4_4
*I *458:B I *D sky130_fd_sc_hd__nand2_4
*I *451:B I *D sky130_fd_sc_hd__and2_4
*I *829:A I *D sky130_fd_sc_hd__buf_4
*I *584:A2 I *D sky130_fd_sc_hd__a22oi_2
*I *838:X O *D sky130_fd_sc_hd__buf_6
*CAP
1 *608:C 0.000121925
2 *458:B 0
3 *451:B 0.00012581
4 *829:A 6.48783e-05
5 *584:A2 1.47608e-05
6 *838:X 0.000695068
7 *408:37 0.000503006
8 *408:24 0.000398849
9 *408:20 0.000240522
10 *408:16 0.000985745
11 *458:A *408:16 6.27782e-05
12 *458:A *408:20 1.41976e-05
13 *471:A *408:16 0.000134073
14 *555:A *451:B 6.27718e-05
15 *584:A1 *584:A2 6.08467e-05
16 *584:B2 *608:C 0
17 *584:B2 *408:24 5.05252e-05
18 *584:B2 *408:37 6.28484e-05
19 *602:A *408:16 0.000122992
20 *624:B *408:16 0.00020699
21 *2:14 *408:16 5.7172e-05
22 *191:8 *584:A2 6.08467e-05
23 *379:12 *408:16 0.000201442
24 *387:10 *408:16 0.000130521
25 *387:29 *608:C 0
26 *388:48 *408:24 5.36397e-05
27 *388:48 *408:37 6.42805e-05
28 *391:33 *408:24 0.000169063
29 *391:33 *408:37 0.000366643
30 *391:46 *408:37 9.81304e-05
31 *394:31 *608:C 0.000218355
32 *394:46 *451:B 6.27782e-05
33 *399:10 *451:B 6.46815e-05
34 *406:27 *408:16 0.000503609
35 *406:40 *608:C 0.000144531
*RES
1 *838:X *408:16 43.0311 
2 *408:16 *408:20 3.52053 
3 *408:20 *408:24 7.57775 
4 *408:24 *584:A2 14.4725 
5 *408:24 *408:37 15.0523 
6 *408:37 *829:A 10.5271 
7 *408:37 *451:B 12.7456 
8 *408:20 *458:B 9.24915 
9 *408:16 *608:C 22.7361 
*END

*D_NET *400 0.00361274
*CONN
*I *430:A2 I *D sky130_fd_sc_hd__o21ai_4
*I *830:X O *D sky130_fd_sc_hd__buf_6
*CAP
1 *430:A2 9.65643e-05
2 *830:X 0.000889746
3 *400:32 0.00098631
4 *400:32 *482:B 2.79645e-05
5 *400:32 *496:A2 0.000257809
6 *400:32 *410:20 1.13359e-05
7 *420:A *430:A2 3.83526e-06
8 *430:A1 *430:A2 9.733e-05
9 *486:A2 *400:32 1.92972e-05
10 *494:B1 *400:32 0
11 *497:B *400:32 0.000259284
12 *529:A1 *400:32 0.00013832
13 *39:38 *400:32 1.09587e-05
14 *42:21 *400:32 0.000109978
15 *57:49 *400:32 2.55616e-05
16 *57:60 *400:32 0.000196939
17 *66:10 *400:32 8.70662e-06
18 *66:27 *400:32 0.000206584
19 *67:20 *400:32 4.93908e-05
20 *314:6 *430:A2 0.000216826
*RES
1 *830:X *400:32 45.8519 
2 *400:32 *430:A2 17.4385 
*END

*D_NET *409 0.00592051
*CONN
*I *496:A2 I *D sky130_fd_sc_hd__a21boi_2
*I *839:X O *D sky130_fd_sc_hd__buf_4
*CAP
1 *496:A2 0.000620388
2 *839:X 0.000964536
3 *409:10 0.00158492
4 *496:A2 *482:B 6.3657e-05
5 *496:A2 *410:20 0.000262738
6 *409:10 *410:20 0.000126724
7 *427:B *409:10 4.89392e-05
8 *482:A *409:10 1.88023e-05
9 *486:B1 *409:10 0.000226845
10 *488:B *409:10 0.000231926
11 *496:B1_N *496:A2 6.36477e-05
12 *497:B *496:A2 1.58551e-05
13 *528:A2 *409:10 0
14 *634:B *409:10 0.000163359
15 *784:A *409:10 0.000122844
16 *831:A *409:10 0.000195154
17 *839:A *409:10 0.000694632
18 *39:18 *496:A2 6.78549e-05
19 *40:12 *496:A2 5.8973e-05
20 *42:21 *496:A2 3.16337e-06
21 *65:22 *409:10 7.72156e-05
22 *104:10 *409:10 5.05252e-05
23 *400:32 *496:A2 0.000257809
*RES
1 *839:X *409:10 45.5115 
2 *409:10 *496:A2 36.4796 
*END

*D_NET *410 0.00372127
*CONN
*I *482:B I *D sky130_fd_sc_hd__nor3_4
*I *840:X O *D sky130_fd_sc_hd__buf_4
*CAP
1 *482:B 8.27526e-05
2 *840:X 0.000704272
3 *410:20 0.000787025
4 *482:A *410:20 0.00053637
5 *488:B *410:20 0.000181333
6 *496:A2 *482:B 6.3657e-05
7 *496:A2 *410:20 0.000262738
8 *496:B1_N *410:20 0.000133679
9 *497:B *482:B 2.20192e-05
10 *528:A1 *410:20 0.000154145
11 *528:A3 *410:20 6.08467e-05
12 *634:A *410:20 0.00015901
13 *767:A *410:20 7.28567e-06
14 *840:A *410:20 0.000213449
15 *39:38 *482:B 2.41568e-05
16 *42:21 *410:20 1.19971e-05
17 *42:32 *410:20 0.000104996
18 *104:10 *410:20 4.55115e-05
19 *400:32 *482:B 2.79645e-05
20 *400:32 *410:20 1.13359e-05
21 *409:10 *410:20 0.000126724
*RES
1 *840:X *410:20 46.6019 
2 *410:20 *482:B 16.3293 
*END

*D_NET *17 0.000333614
*CONN
*I *752:A I *D sky130_fd_sc_hd__clkdlybuf4s50_1
*I *626:X O *D sky130_fd_sc_hd__and2_2
*CAP
1 *752:A 0.000162993
2 *626:X 0.000162993
3 *752:A *307:22 0
4 *10:24 *752:A 7.6276e-06
*RES
1 *626:X *752:A 31.0235 
*END

*D_NET *411 0.000636097
*CONN
*I *493:A1 I *D sky130_fd_sc_hd__o21ai_2
*I *841:X O *D sky130_fd_sc_hd__buf_4
*CAP
1 *493:A1 0.000160268
2 *841:X 0.000160268
3 *482:A *493:A1 3.20069e-06
4 *777:A *493:A1 6.08467e-05
5 *831:A *493:A1 5.41377e-05
6 *839:A *493:A1 0.000116454
7 *843:A *493:A1 0
8 *96:12 *493:A1 7.58739e-05
9 *100:16 *493:A1 5.04829e-06
*RES
1 *841:X *493:A1 32.6016 
*END

*D_NET *412 0.00112506
*CONN
*I *768:A I *D sky130_fd_sc_hd__buf_4
*I *842:X O *D sky130_fd_sc_hd__buf_4
*CAP
1 *768:A 0.000391455
2 *842:X 0.000391455
3 *627:A *768:A 0
4 *766:A *768:A 0.000307806
5 *347:8 *768:A 3.43489e-05
*RES
1 *842:X *768:A 36.9848 
*END

*D_NET *413 0.00379209
*CONN
*I *770:A I *D sky130_fd_sc_hd__buf_4
*I *843:X O *D sky130_fd_sc_hd__buf_4
*CAP
1 *770:A 2.06324e-05
2 *843:X 0.00123729
3 *413:24 0.00125792
4 *423:A2 *413:24 2.26421e-05
5 *423:D1 *413:24 4.43286e-05
6 *425:A2 *413:24 6.50586e-05
7 *425:C1 *413:24 0.000213039
8 *426:A2 *413:24 4.55032e-05
9 *428:B1 *413:24 0.000385117
10 *446:B *413:24 7.80506e-05
11 *481:A2 *413:24 2.36582e-05
12 *481:B1 *413:24 1.00981e-05
13 *776:A *413:24 0.000132082
14 *48:8 *413:24 1.00937e-05
15 *50:8 *413:24 0.000132607
16 *61:10 *413:24 0
17 *100:10 *413:24 0.000113968
*RES
1 *843:X *413:24 49.5498 
2 *413:24 *770:A 9.82786 
*END

*D_NET *414 0.0025957
*CONN
*I *794:A I *D sky130_fd_sc_hd__buf_4
*I *611:B I *D sky130_fd_sc_hd__nand2_1
*I *844:X O *D sky130_fd_sc_hd__buf_4
*CAP
1 *794:A 0.000357463
2 *611:B 0.000155616
3 *844:X 3.26653e-05
4 *414:6 0.000545745
5 *611:B *795:A 0.000160047
6 *414:6 *795:A 0.000111352
7 *423:D1 *611:B 0
8 *615:A1 *794:A 0.000141811
9 *615:B1 *794:A 0
10 *621:A1 *611:B 5.03545e-06
11 *621:A1 *794:A 0.000376886
12 *621:A2 *794:A 2.65667e-05
13 *621:B1 *794:A 6.50586e-05
14 *664:B *611:B 0.000167076
15 *664:B *414:6 0.000220183
16 *844:A *414:6 3.48273e-05
17 *188:10 *794:A 0
18 *365:8 *611:B 5.35603e-05
19 *365:8 *794:A 0.000141811
*RES
1 *844:X *414:6 11.6364 
2 *414:6 *611:B 23.5748 
3 *414:6 *794:A 30.2188 
*END

*D_NET *18 0.00280364
*CONN
*I *753:A I *D sky130_fd_sc_hd__buf_2
*I *446:Y O *D sky130_fd_sc_hd__xnor2_2
*CAP
1 *753:A 0.000989262
2 *446:Y 0.000989262
3 *753:A P[9] 0.000456573
4 *753:A *429:A 0.000254963
5 *753:A *831:A 2.44599e-05
6 *753:A *66:10 8.91253e-05
*RES
1 *446:Y *753:A 42.7562 
*END

*D_NET *415 0.00154215
*CONN
*I *795:A I *D sky130_fd_sc_hd__buf_4
*I *845:X O *D sky130_fd_sc_hd__buf_4
*CAP
1 *795:A 0.000317028
2 *845:X 0.000317028
3 *611:B *795:A 0.000160047
4 *664:B *795:A 0.000397418
5 *844:A *795:A 0.000112694
6 *845:A *795:A 6.3657e-05
7 *193:14 *795:A 6.29273e-05
8 *414:6 *795:A 0.000111352
*RES
1 *845:X *795:A 37.6424 
*END

*D_NET *416 0.00299434
*CONN
*I *550:A2 I *D sky130_fd_sc_hd__a21oi_2
*I *553:A2 I *D sky130_fd_sc_hd__a31o_2
*I *548:B I *D sky130_fd_sc_hd__nand2_1
*I *846:X O *D sky130_fd_sc_hd__buf_4
*CAP
1 *550:A2 0
2 *553:A2 0
3 *548:B 5.91657e-05
4 *846:X 0.000531663
5 *416:26 0.000222342
6 *416:22 0.000694839
7 *468:B *548:B 1.03594e-05
8 *550:A1 *416:26 2.5668e-05
9 *551:A *416:22 7.50722e-05
10 *551:B *416:22 2.25104e-05
11 *552:A1 *416:22 3.49779e-05
12 *552:A1 *416:26 4.24488e-05
13 *553:A3 *548:B 7.26748e-05
14 *553:B1 *416:26 6.08467e-05
15 *662:A *416:26 0.000221985
16 *812:A *416:22 1.36556e-05
17 *5:12 *416:22 2.22198e-05
18 *140:18 *416:22 0.000124174
19 *140:18 *416:26 6.08467e-05
20 *234:14 *416:22 6.08467e-05
21 *234:14 *416:26 5.34588e-05
22 *245:6 *416:22 0.000360145
23 *265:18 *416:22 0.000113309
24 *382:99 *416:22 0
25 *382:101 *548:B 0.000111135
*RES
1 *846:X *416:22 40.834 
2 *416:22 *416:26 6.00419 
3 *416:26 *548:B 20.4964 
4 *416:26 *553:A2 9.24915 
5 *416:22 *550:A2 9.24915 
*END

*D_NET *417 0.00156235
*CONN
*I *566:B I *D sky130_fd_sc_hd__nand2_1
*I *565:B I *D sky130_fd_sc_hd__nand4_1
*I *847:X O *D sky130_fd_sc_hd__buf_4
*CAP
1 *566:B 0.00018436
2 *565:B 0
3 *847:X 0.000239005
4 *417:10 0.000423365
5 *565:C *566:B 8.62625e-06
6 *565:C *417:10 3.07758e-05
7 *566:A *566:B 6.50727e-05
8 *572:C *417:10 0.000113295
9 *573:A *417:10 0.000376
10 *573:B *417:10 2.16355e-05
11 *573:C *417:10 6.08467e-05
12 *289:12 *566:B 2.71397e-05
13 *382:32 *417:10 1.22289e-05
*RES
1 *847:X *417:10 21.7028 
2 *417:10 *565:B 13.7491 
3 *417:10 *566:B 17.8923 
*END

*D_NET *418 0.00045997
*CONN
*I *423:B1 I *D sky130_fd_sc_hd__a2111oi_4
*I *848:X O *D sky130_fd_sc_hd__buf_4
*CAP
1 *423:B1 0.000139823
2 *848:X 0.000139823
3 *423:A1 *423:B1 5.03545e-06
4 *37:10 *423:B1 4.14089e-05
5 *37:23 *423:B1 1.59362e-06
6 *45:8 *423:B1 0.000112367
7 *46:10 *423:B1 1.99195e-05
*RES
1 *848:X *423:B1 31.4388 
*END

*D_NET *19 0.00132995
*CONN
*I *754:A I *D sky130_fd_sc_hd__buf_2
*I *630:Y O *D sky130_fd_sc_hd__xnor2_1
*CAP
1 *754:A 0.000509663
2 *630:Y 0.000509663
3 *754:A P[11] 2.83365e-05
4 *754:A *420:A 0.000112367
5 *754:A *432:A 0.000111658
6 *754:A *630:B 1.43832e-05
7 *754:A *204:14 4.38769e-05
*RES
1 *630:Y *754:A 36.5696 
*END

*D_NET *419 0.000726998
*CONN
*I *422:B1 I *D sky130_fd_sc_hd__o21ai_2
*I *849:X O *D sky130_fd_sc_hd__buf_4
*CAP
1 *422:B1 0.000177559
2 *849:X 0.000177559
3 *422:A1 *422:B1 6.50727e-05
4 *422:A2 *422:B1 6.08467e-05
5 *34:8 *422:B1 0.000110458
6 *37:36 *422:B1 2.40368e-05
7 *46:10 *422:B1 6.89594e-05
8 *403:14 *422:B1 4.2507e-05
*RES
1 *849:X *422:B1 33.066 
*END

*D_NET *2 0.00332041
*CONN
*I *624:B I *D sky130_fd_sc_hd__and2_4
*I *819:A I *D sky130_fd_sc_hd__buf_4
*I *517:X O *D sky130_fd_sc_hd__buf_6
*CAP
1 *624:B 0.000650696
2 *819:A 2.86212e-05
3 *517:X 0.000380268
4 *2:14 0.00105959
5 *624:B *463:A 0.000302956
6 *624:B *471:A 0.000106798
7 *624:B *676:A 0.000105459
8 *624:B *747:A 0
9 *624:B *408:16 0.00020699
10 *819:A *389:8 6.08467e-05
11 *2:14 *517:A 0.000166094
12 *2:14 *747:A 1.77537e-06
13 *2:14 *12:14 0
14 *2:14 *379:12 8.2492e-05
15 *2:14 *389:8 5.08751e-05
16 *2:14 *408:16 5.7172e-05
17 *838:A *624:B 6.92305e-06
18 *1:6 *624:B 5.28632e-05
*RES
1 *517:X *2:14 29.4233 
2 *2:14 *819:A 9.97254 
3 *2:14 *624:B 33.8789 
*END

*D_NET *20 0.000689935
*CONN
*I *755:A I *D sky130_fd_sc_hd__buf_2
*I *432:Y O *D sky130_fd_sc_hd__xnor2_1
*CAP
1 *755:A 0.00031457
2 *432:Y 0.00031457
3 *755:A *432:A 1.4106e-05
4 *755:A *432:B 4.66889e-05
*RES
1 *432:Y *755:A 33.1026 
*END

*D_NET *21 0.00113803
*CONN
*I *756:A I *D sky130_fd_sc_hd__buf_2
*I *497:Y O *D sky130_fd_sc_hd__xnor2_1
*CAP
1 *756:A 0.000524596
2 *497:Y 0.000524596
3 *756:A *497:B 2.60631e-05
4 *756:A *350:8 6.27782e-05
*RES
1 *497:Y *756:A 28.2641 
*END

*D_NET *22 0.000640553
*CONN
*I *757:A I *D sky130_fd_sc_hd__buf_2
*I *530:Y O *D sky130_fd_sc_hd__xnor2_1
*CAP
1 *757:A 0.000173353
2 *530:Y 0.000173353
3 *757:A *492:A 0.000130777
4 *757:A *530:A 0.000163069
5 *757:A *651:A 0
*RES
1 *530:Y *757:A 31.5781 
*END

*D_NET *23 0.0006927
*CONN
*I *758:A I *D sky130_fd_sc_hd__buf_2
*I *490:X O *D sky130_fd_sc_hd__xor2_1
*CAP
1 *758:A 0.000307513
2 *490:X 0.000307513
3 *758:A *490:A 1.2601e-05
4 *758:A *490:B 6.50727e-05
5 *758:A *492:A 0
6 *758:A *339:16 0
*RES
1 *490:X *758:A 35.452 
*END

*D_NET *24 0.00073229
*CONN
*I *759:A I *D sky130_fd_sc_hd__clkdlybuf4s50_1
*I *657:SUM O *D sky130_fd_sc_hd__ha_1
*CAP
1 *759:A 0.000228528
2 *657:SUM 0.000228528
3 *759:A P[1] 1.4106e-05
4 *759:A *456:A 0.000261128
*RES
1 *657:SUM *759:A 33.8207 
*END

*D_NET *25 0.00171578
*CONN
*I *760:A I *D sky130_fd_sc_hd__clkdlybuf4s50_1
*I *655:SUM O *D sky130_fd_sc_hd__fa_2
*CAP
1 *760:A 0.00082123
2 *655:SUM 0.00082123
3 *760:A P[2] 3.00174e-06
4 *760:A *655:B 2.41338e-05
5 *760:A *655:CIN 2.00333e-05
6 *760:A *798:A 2.61492e-05
*RES
1 *655:SUM *760:A 42.0029 
*END

*D_NET *26 0.000401805
*CONN
*I *761:A I *D sky130_fd_sc_hd__dlygate4sd2_1
*I *622:X O *D sky130_fd_sc_hd__xor2_1
*CAP
1 *761:A 0.000128252
2 *622:X 0.000128252
3 *761:A *762:A 0.000145301
*RES
1 *622:X *761:A 31.0235 
*END

*D_NET *27 0.00155057
*CONN
*I *762:A I *D sky130_fd_sc_hd__buf_2
*I *516:Y O *D sky130_fd_sc_hd__xnor2_2
*CAP
1 *762:A 0.000532434
2 *516:Y 0.000532434
3 *762:A P[3] 5.04829e-06
4 *762:A P[4] 5.31465e-05
5 *762:A *515:A2 1.00662e-05
6 *762:A *58:16 0.000272143
7 *762:A *359:16 0
8 *761:A *762:A 0.000145301
*RES
1 *516:Y *762:A 41.0302 
*END

*D_NET *28 0.00114628
*CONN
*I *763:A I *D sky130_fd_sc_hd__buf_2
*I *513:Y O *D sky130_fd_sc_hd__xnor2_1
*CAP
1 *763:A 0.000462065
2 *513:Y 0.000462065
3 *763:A *513:A 0.000222149
4 *763:A *513:B 0
*RES
1 *513:Y *763:A 35.4604 
*END

*D_NET *29 0.00104206
*CONN
*I *764:A I *D sky130_fd_sc_hd__buf_2
*I *633:Y O *D sky130_fd_sc_hd__xnor2_1
*CAP
1 *764:A 0.00038986
2 *633:Y 0.00038986
3 *764:A *633:B 0.000262339
*RES
1 *633:Y *764:A 28.1436 
*END

*D_NET *3 0.00324557
*CONN
*I *818:A I *D sky130_fd_sc_hd__buf_8
*I *527:B I *D sky130_fd_sc_hd__and2_4
*I *526:B I *D sky130_fd_sc_hd__and2_1
*I *501:X O *D sky130_fd_sc_hd__buf_6
*CAP
1 *818:A 0
2 *527:B 0
3 *526:B 8.67761e-05
4 *501:X 0.000527905
5 *3:24 0.000632557
6 *3:14 0.00107369
7 *526:B *642:B 2.41274e-06
8 *526:B *16:74 0.000205666
9 *3:14 *501:A 7.97944e-05
10 *3:14 *15:12 7.7321e-05
11 *3:14 *391:10 8.07794e-05
12 *3:24 *527:A 2.44579e-05
13 *3:24 *642:B 0.000126064
14 *3:24 *835:A 0
15 *3:24 *16:74 6.27718e-05
16 *3:24 *385:8 5.16364e-05
17 *463:B *3:14 0.000213739
*RES
1 *501:X *3:14 32.0573 
2 *3:14 *3:24 22.2532 
3 *3:24 *526:B 11.6364 
4 *3:24 *527:B 9.24915 
5 *3:14 *818:A 9.24915 
*END

*D_NET *30 0.00122497
*CONN
*I *765:A I *D sky130_fd_sc_hd__buf_2
*I *627:Y O *D sky130_fd_sc_hd__xnor2_1
*CAP
1 *765:A 0.000599546
2 *627:Y 0.000599546
3 *765:A *452:B 2.58757e-05
*RES
1 *627:Y *765:A 29.3733 
*END

*D_NET *31 0.0014151
*CONN
*I *766:A I *D sky130_fd_sc_hd__buf_2
*I *453:Y O *D sky130_fd_sc_hd__xnor2_1
*CAP
1 *766:A 0.000553646
2 *453:Y 0.000553646
3 *766:A *768:A 0.000307806
*RES
1 *453:Y *766:A 27.4202 
*END

*D_NET *32 0.00112305
*CONN
*I *767:A I *D sky130_fd_sc_hd__buf_2
*I *634:X O *D sky130_fd_sc_hd__xor2_1
*CAP
1 *767:A 0.000482668
2 *634:X 0.000482668
3 *767:A P[9] 0
4 *767:A *634:A 1.4106e-05
5 *767:A *634:B 6.55312e-05
6 *767:A *840:A 7.07939e-05
7 *767:A *410:20 7.28567e-06
*RES
1 *634:X *767:A 35.8756 
*END

*D_NET *4 0.00629747
*CONN
*I *817:A I *D sky130_fd_sc_hd__buf_6
*I *525:A I *D sky130_fd_sc_hd__and2_4
*I *524:B I *D sky130_fd_sc_hd__and2_1
*I *457:B I *D sky130_fd_sc_hd__nand2_2
*I *471:X O *D sky130_fd_sc_hd__buf_6
*CAP
1 *817:A 0.000207458
2 *525:A 0.000283756
3 *524:B 0
4 *457:B 0.000176096
5 *471:X 0.000214794
6 *4:18 0.000342553
7 *4:12 0.00120138
8 *4:6 0.00117342
9 *457:B *519:A 3.54435e-05
10 *457:B *636:A 8.2476e-06
11 *457:B *647:CIN 0.000203993
12 *457:B *835:A 6.27718e-05
13 *457:B *13:30 0.000178968
14 *457:B *15:25 1.65872e-05
15 *457:B *284:20 3.82228e-05
16 *525:A *525:B 0.000111722
17 *525:A *645:A 0.000492635
18 *525:A *385:8 0.000605014
19 *817:A *463:A 0
20 *817:A *15:12 0
21 *817:A *387:10 0.000542423
22 *4:6 *406:12 5.04829e-06
23 *4:12 *642:CIN 1.94355e-05
24 *4:12 *15:23 4.55633e-05
25 *4:12 *15:25 1.34372e-05
26 *4:12 *290:24 1.83992e-05
27 *4:12 *406:12 6.13051e-05
28 *4:18 *15:25 8.87207e-05
29 *463:B *817:A 0.000150081
*RES
1 *471:X *4:6 13.8548 
2 *4:6 *4:12 13.1176 
3 *4:12 *4:18 4.09924 
4 *4:18 *457:B 24.5446 
5 *4:18 *524:B 9.24915 
6 *4:12 *525:A 30.4947 
7 *4:6 *817:A 27.5557 
*END

*D_NET *5 0.0109849
*CONN
*I *816:A I *D sky130_fd_sc_hd__buf_6
*I *521:B I *D sky130_fd_sc_hd__and2_1
*I *520:B I *D sky130_fd_sc_hd__and2_1
*I *518:B I *D sky130_fd_sc_hd__and2_1
*I *519:B I *D sky130_fd_sc_hd__and2_1
*I *456:X O *D sky130_fd_sc_hd__buf_8
*CAP
1 *816:A 8.52891e-05
2 *521:B 0.000105353
3 *520:B 7.19201e-05
4 *518:B 0
5 *519:B 0
6 *456:X 0.000670636
7 *5:35 0.000210674
8 *5:22 0.000352852
9 *5:16 0.00135494
10 *5:12 0.00179141
11 *520:B *518:A 6.27718e-05
12 *520:B *520:A 6.27718e-05
13 *520:B *525:B 6.27782e-05
14 *520:B *16:54 3.68716e-05
15 *520:B *78:12 0.000114271
16 *521:B *521:A 0.000116505
17 *521:B *668:A 0.000320266
18 *816:A *510:B 0.000253367
19 *816:A *641:B 6.27718e-05
20 *5:12 *551:A 0.000212768
21 *5:12 *552:A1 7.8756e-07
22 *5:12 *641:A 0.000355306
23 *5:12 *657:A 3.39204e-05
24 *5:12 *657:B 4.54816e-05
25 *5:12 *812:A 6.15408e-05
26 *5:12 *288:20 0.000131452
27 *5:12 *288:26 0.00011815
28 *5:12 *416:22 2.22198e-05
29 *5:16 *443:A 0.000177787
30 *5:16 *474:A 0.000143482
31 *5:16 *474:B 0.000246678
32 *5:16 *474:C 2.47808e-05
33 *5:16 *510:A 0.000188554
34 *5:16 *600:A0 0
35 *5:16 *641:A 1.07549e-05
36 *5:16 *646:B 0.000236884
37 *5:16 *654:A 0.000301269
38 *5:16 *807:A 8.36429e-06
39 *5:16 *812:A 0.000138966
40 *5:16 *88:10 0
41 *5:16 *90:17 0.000391156
42 *5:16 *90:19 0.000101585
43 *5:16 *377:10 8.96342e-05
44 *5:16 *377:12 0.000296428
45 *5:16 *383:44 0.000169063
46 *5:16 *383:55 0.00091076
47 *5:16 *384:30 7.29287e-05
48 *5:16 *384:43 3.4693e-05
49 *5:16 *396:10 0.000184946
50 *5:16 *396:19 0.000163982
51 *5:22 *646:B 1.07248e-05
52 *5:22 *670:A 0.000105182
53 *5:22 *383:44 8.3095e-05
54 *5:22 *384:21 6.97452e-05
55 *5:35 *518:A 4.40102e-05
56 *5:35 *635:CIN 6.24176e-05
*RES
1 *456:X *5:12 34.3408 
2 *5:12 *5:16 44.09 
3 *5:16 *5:22 10.9348 
4 *5:22 *519:B 9.24915 
5 *5:22 *5:35 4.82264 
6 *5:35 *518:B 9.24915 
7 *5:35 *520:B 12.191 
8 *5:16 *521:B 17.8243 
9 *5:12 *816:A 16.691 
*END

*D_NET *6 0.00349215
*CONN
*I *507:B I *D sky130_fd_sc_hd__and2_4
*I *815:A I *D sky130_fd_sc_hd__buf_6
*I *506:B I *D sky130_fd_sc_hd__and2_1
*I *505:B I *D sky130_fd_sc_hd__and2_1
*I *450:X O *D sky130_fd_sc_hd__buf_6
*CAP
1 *507:B 4.84596e-05
2 *815:A 0.000514467
3 *506:B 3.96115e-05
4 *505:B 1.22651e-05
5 *450:X 0.000205465
6 *6:32 0.000672762
7 *6:16 0.000129836
8 *6:12 0.00039326
9 *505:B *392:12 0.000118166
10 *505:B *405:12 5.56461e-05
11 *506:B *392:12 6.50727e-05
12 *506:B *405:6 0.000118166
13 *506:B *405:12 1.67988e-05
14 *507:B *636:CIN 5.3633e-05
15 *507:B *14:32 0.000116958
16 *507:B *14:43 1.03594e-05
17 *815:A *647:CIN 6.50586e-05
18 *6:12 *450:A 0.00011818
19 *6:12 *14:21 0.000219467
20 *6:16 *450:A 9.98029e-06
21 *6:16 *637:A 4.86647e-05
22 *6:16 *14:32 8.62625e-06
23 *6:16 *392:12 0.000127194
24 *6:32 *450:A 1.77537e-06
25 *6:32 *636:CIN 5.25257e-05
26 *6:32 *14:32 0.000269747
27 *6:32 *284:20 0
*RES
1 *450:X *6:12 19.6569 
2 *6:12 *6:16 7.57775 
3 *6:16 *505:B 10.5271 
4 *6:16 *506:B 11.0817 
5 *6:12 *6:32 4.73876 
6 *6:32 *815:A 21.5618 
7 *6:32 *507:B 15.9964 
*END

*D_NET *7 0.00440011
*CONN
*I *444:B I *D sky130_fd_sc_hd__and2_1
*I *454:B I *D sky130_fd_sc_hd__and2_1
*I *447:B I *D sky130_fd_sc_hd__and2_1
*I *814:A I *D sky130_fd_sc_hd__buf_4
*I *448:X O *D sky130_fd_sc_hd__buf_2
*CAP
1 *444:B 7.26399e-05
2 *454:B 5.9631e-05
3 *447:B 0
4 *814:A 0.00025656
5 *448:X 0.000199509
6 *7:37 0.000471726
7 *7:14 0.000893773
8 *7:10 0.000497267
9 *444:B *433:B 0.000122098
10 *444:B *650:B 0
11 *444:B *650:CIN 0
12 *454:B *437:B 8.24358e-05
13 *454:B *454:A 2.10212e-05
14 *454:B *392:12 2.99287e-05
15 *454:B *405:12 0.000178236
16 *814:A *433:B 0
17 *814:A *672:A 0
18 *814:A *672:B 9.75356e-05
19 *814:A *820:A 0
20 *814:A *8:14 0.000332543
21 *814:A *16:26 7.48797e-05
22 *7:10 *433:B 5.41227e-05
23 *7:10 *437:A 0
24 *7:10 *448:A 1.43848e-05
25 *7:10 *650:CIN 0
26 *7:14 *650:A 0.000377259
27 *7:37 *437:A 2.90331e-05
28 *7:37 *437:B 0.000231582
29 *7:37 *650:A 0.000248423
30 *7:37 *405:12 5.55213e-05
*RES
1 *448:X *7:10 17.9655 
2 *7:10 *7:14 8.55102 
3 *7:14 *814:A 26.6209 
4 *7:14 *7:37 10.2481 
5 *7:37 *447:B 9.24915 
6 *7:37 *454:B 13.5172 
7 *7:10 *444:B 15.9964 
*END

*D_NET *8 0.00239708
*CONN
*I *813:A I *D sky130_fd_sc_hd__buf_4
*I *437:A I *D sky130_fd_sc_hd__and2_1
*I *440:X O *D sky130_fd_sc_hd__dlygate4sd2_1
*CAP
1 *813:A 0
2 *437:A 0.000194687
3 *440:X 0.000653431
4 *8:14 0.000848118
5 *437:A *433:A 0.00011818
6 *437:A *433:B 0
7 *437:A *650:A 2.42138e-05
8 *437:A *383:24 3.67528e-06
9 *437:A *405:12 0
10 *8:14 *433:B 0
11 *8:14 *670:B 8.36586e-06
12 *8:14 *672:A 0
13 *8:14 *673:A 0.000132795
14 *8:14 *383:24 5.20375e-05
15 *8:14 *383:35 0
16 *814:A *8:14 0.000332543
17 *7:10 *437:A 0
18 *7:37 *437:A 2.90331e-05
*RES
1 *440:X *8:14 29.6574 
2 *8:14 *437:A 18.8258 
3 *8:14 *813:A 13.7491 
*END

*D_NET *9 0.00558356
*CONN
*I *502:A I *D sky130_fd_sc_hd__and2_4
*I *812:A I *D sky130_fd_sc_hd__buf_4
*I *438:X O *D sky130_fd_sc_hd__dlygate4sd2_1
*CAP
1 *502:A 3.44584e-05
2 *812:A 0.000840649
3 *438:X 0.000431673
4 *9:14 0.00130678
5 *502:A *470:B 6.56531e-05
6 *502:A *265:18 1.92336e-05
7 *812:A *522:A 7.20535e-05
8 *812:A *551:A 0.000167749
9 *812:A *641:B 9.5991e-05
10 *812:A *657:A 5.35836e-05
11 *812:A *71:13 0.000521099
12 *812:A *90:17 7.50722e-05
13 *812:A *288:20 0.000138453
14 *812:A *288:26 0.00011815
15 *812:A *384:43 5.05252e-05
16 *812:A *416:22 1.36556e-05
17 *9:14 *469:B 0.000268334
18 *9:14 *663:A 2.77625e-06
19 *9:14 *11:32 0.000459784
20 *9:14 *89:6 4.31668e-05
21 *9:14 *193:12 0.000311261
22 *9:14 *237:12 0.000164653
23 *9:14 *265:18 0.000111708
24 *9:14 *289:12 0
25 *9:14 *384:43 1.65872e-05
26 *5:12 *812:A 6.15408e-05
27 *5:16 *812:A 0.000138966
*RES
1 *438:X *9:14 32.0598 
2 *9:14 *812:A 44.2785 
3 *9:14 *502:A 10.5513 
*END

*D_NET *401 0.000684736
*CONN
*I *634:B I *D sky130_fd_sc_hd__xor2_1
*I *831:X O *D sky130_fd_sc_hd__buf_4
*CAP
1 *634:B 0.000113823
2 *831:X 0.000113823
3 *634:B *409:10 0.000163359
4 *482:A *634:B 6.72595e-05
5 *634:A *634:B 0.000160942
6 *767:A *634:B 6.55312e-05
*RES
1 *831:X *634:B 32.4086 
*END

*D_NET *338 0.00095294
*CONN
*I *627:A I *D sky130_fd_sc_hd__xnor2_1
*I *768:X O *D sky130_fd_sc_hd__buf_4
*CAP
1 *627:A 0.000447305
2 *768:X 0.000447305
3 *627:A *627:B 3.55179e-05
4 *627:A *768:A 0
5 P[8] *627:A 2.28129e-05
*RES
1 *768:X *627:A 37.9491 
*END

*D_NET *339 0.00306393
*CONN
*I *492:B I *D sky130_fd_sc_hd__nor2_1
*I *769:X O *D sky130_fd_sc_hd__buf_4
*CAP
1 *492:B 0
2 *769:X 0.000818142
3 *339:16 0.000818142
4 *420:A *339:16 0.000653785
5 *490:A *339:16 0.000101312
6 *528:A1 *339:16 2.20702e-05
7 *758:A *339:16 0
8 *109:8 *339:16 7.73257e-05
9 *110:12 *339:16 7.34948e-06
10 *204:14 *339:16 0.000565799
*RES
1 *769:X *339:16 44.5333 
2 *339:16 *492:B 9.24915 
*END

*D_NET *340 0.000737764
*CONN
*I *452:B I *D sky130_fd_sc_hd__nand2_2
*I *770:X O *D sky130_fd_sc_hd__buf_4
*CAP
1 *452:B 0.000318617
2 *770:X 0.000318617
3 *452:B *627:B 7.22413e-05
4 *427:A *452:B 0
5 *453:A *452:B 2.41274e-06
6 *765:A *452:B 2.58757e-05
7 *832:A *452:B 0
8 *100:10 *452:B 0
*RES
1 *770:X *452:B 35.7307 
*END

*D_NET *243 0.00121881
*CONN
*I *640:CIN I *D sky130_fd_sc_hd__fa_2
*I *625:X O *D sky130_fd_sc_hd__and2_1
*CAP
1 *640:CIN 0.000255926
2 *625:X 0.000255926
3 *640:CIN *556:A 6.11359e-06
4 *640:CIN *288:14 1.47046e-05
5 *640:CIN *389:79 0.000400601
6 *143:10 *640:CIN 0.000285536
*RES
1 *625:X *640:CIN 35.2143 
*END

*D_NET *244 0.00048499
*CONN
*I *642:A I *D sky130_fd_sc_hd__fa_1
*I *624:X O *D sky130_fd_sc_hd__and2_4
*CAP
1 *642:A 0.00011014
2 *624:X 0.00011014
3 *642:A *290:24 9.29777e-05
4 *642:A *391:10 0.000146652
5 *463:A *642:A 2.16355e-05
6 *15:12 *642:A 3.44412e-06
*RES
1 *624:X *642:A 21.635 
*END

*D_NET *245 0.00394199
*CONN
*I *655:A I *D sky130_fd_sc_hd__fa_2
*I *665:A I *D sky130_fd_sc_hd__ha_1
*I *623:X O *D sky130_fd_sc_hd__and2_1
*CAP
1 *655:A 0.000187494
2 *665:A 0.000295843
3 *623:X 0.000558981
4 *245:6 0.00104232
5 *655:A *655:CIN 9.4814e-05
6 *655:A *657:B 0
7 *655:A *674:B 7.86847e-05
8 *655:A *382:99 2.19276e-05
9 *665:A *665:B 0.000271188
10 *245:6 *498:A 0.000619031
11 *245:6 *674:A 0.000281678
12 *245:6 *846:A 0.00012376
13 *245:6 *416:22 0.000360145
14 *658:A *245:6 6.12686e-06
*RES
1 *623:X *245:6 26.056 
2 *245:6 *665:A 17.7611 
3 *245:6 *655:A 14.9845 
*END

*D_NET *246 0.000481845
*CONN
*I *640:A I *D sky130_fd_sc_hd__fa_2
*I *531:X O *D sky130_fd_sc_hd__and2_4
*CAP
1 *640:A 0.000106172
2 *531:X 0.000106172
3 *640:A *556:B 6.27782e-05
4 *640:A *388:76 0.000146652
5 *640:A *395:57 6.00698e-05
*RES
1 *531:X *640:A 21.635 
*END

*D_NET *247 0.000409791
*CONN
*I *657:A I *D sky130_fd_sc_hd__ha_1
*I *504:X O *D sky130_fd_sc_hd__and2_2
*CAP
1 *657:A 0.000136674
2 *504:X 0.000136674
3 *655:B *657:A 4.89392e-05
4 *812:A *657:A 5.35836e-05
5 *5:12 *657:A 3.39204e-05
*RES
1 *504:X *657:A 31.5781 
*END

*D_NET *248 0.000526577
*CONN
*I *642:B I *D sky130_fd_sc_hd__fa_1
*I *527:X O *D sky130_fd_sc_hd__and2_4
*CAP
1 *642:B 0.000143713
2 *527:X 0.000143713
3 *642:B *385:8 1.07403e-05
4 *526:B *642:B 2.41274e-06
5 *527:A *642:B 9.29919e-05
6 *3:24 *642:B 0.000126064
7 *16:74 *642:B 6.94204e-06
*RES
1 *527:X *642:B 21.7744 
*END

*D_NET *249 0.000444031
*CONN
*I *644:A I *D sky130_fd_sc_hd__fa_1
*I *526:X O *D sky130_fd_sc_hd__and2_1
*CAP
1 *644:A 0.000131551
2 *526:X 0.000131551
3 *644:A *385:8 0.00011815
4 *16:74 *644:A 6.27782e-05
*RES
1 *526:X *644:A 21.2198 
*END

*D_NET *250 0.00117556
*CONN
*I *642:CIN I *D sky130_fd_sc_hd__fa_1
*I *525:X O *D sky130_fd_sc_hd__and2_4
*CAP
1 *642:CIN 0.000417984
2 *525:X 0.000417984
3 *642:CIN *385:8 0
4 *4:12 *642:CIN 1.94355e-05
5 *13:14 *642:CIN 0.000209701
6 *15:23 *642:CIN 0.000110458
*RES
1 *525:X *642:CIN 38.8062 
*END

*D_NET *251 0.00185714
*CONN
*I *674:A I *D sky130_fd_sc_hd__ha_1
*I *498:X O *D sky130_fd_sc_hd__and2_2
*CAP
1 *674:A 0.000560016
2 *498:X 0.000560016
3 *674:A *846:A 0.000369197
4 *658:A *674:A 1.19721e-05
5 *140:18 *674:A 7.42647e-05
6 *245:6 *674:A 0.000281678
*RES
1 *498:X *674:A 30.2173 
*END

*D_NET *252 0.000820858
*CONN
*I *644:B I *D sky130_fd_sc_hd__fa_1
*I *524:X O *D sky130_fd_sc_hd__and2_1
*CAP
1 *644:B 0.000214015
2 *524:X 0.000214015
3 *644:B *644:CIN 1.94615e-05
4 *644:B *284:20 8.36586e-06
5 *525:B *644:B 0.000209597
6 *645:A *644:B 9.0722e-05
7 *15:25 *644:B 6.46815e-05
*RES
1 *524:X *644:B 24.9571 
*END

*D_NET *253 0.0010444
*CONN
*I *635:A I *D sky130_fd_sc_hd__fa_1
*I *523:Y O *D sky130_fd_sc_hd__inv_1
*CAP
1 *635:A 0.000411911
2 *523:Y 0.000411911
3 *635:A *635:B 2.02035e-05
4 *635:A *635:CIN 7.77913e-05
5 *635:A *636:CIN 0
6 *521:A *635:A 4.35719e-05
7 *669:A *635:A 0
8 *837:A *635:A 7.90076e-05
*RES
1 *523:Y *635:A 28.5564 
*END

*D_NET *254 0.0012991
*CONN
*I *641:A I *D sky130_fd_sc_hd__fa_2
*I *522:X O *D sky130_fd_sc_hd__and2_4
*CAP
1 *641:A 0.000249314
2 *522:X 0.000249314
3 *641:A *510:A 0.000124192
4 *641:A *265:18 8.9478e-05
5 *641:A *309:18 0.000190134
6 *552:A1 *641:A 3.06027e-05
7 *5:12 *641:A 0.000355306
8 *5:16 *641:A 1.07549e-05
*RES
1 *522:X *641:A 28.4595 
*END

*D_NET *255 0.00101801
*CONN
*I *668:A I *D sky130_fd_sc_hd__ha_2
*I *521:X O *D sky130_fd_sc_hd__and2_1
*CAP
1 *668:A 9.17172e-05
2 *521:X 9.17172e-05
3 *668:A *668:B 0.000468418
4 *521:A *668:A 4.58907e-05
5 *521:B *668:A 0.000320266
*RES
1 *521:X *668:A 24.2372 
*END

*D_NET *256 0.00167477
*CONN
*I *644:CIN I *D sky130_fd_sc_hd__fa_1
*I *520:X O *D sky130_fd_sc_hd__and2_1
*CAP
1 *644:CIN 0.000583194
2 *520:X 0.000583194
3 *644:CIN *647:CIN 8.94145e-05
4 *644:CIN *290:24 3.81368e-05
5 *525:B *644:CIN 0.000361369
6 *644:B *644:CIN 1.94615e-05
*RES
1 *520:X *644:CIN 40.1997 
*END

*D_NET *257 0.00168771
*CONN
*I *635:CIN I *D sky130_fd_sc_hd__fa_1
*I *519:X O *D sky130_fd_sc_hd__and2_1
*CAP
1 *635:CIN 0.000641585
2 *519:X 0.000641585
3 *635:CIN *636:CIN 0
4 *635:CIN *646:CIN 0
5 *635:CIN *384:21 0
6 *635:CIN *384:30 0
7 *518:A *635:CIN 6.55651e-05
8 *635:A *635:CIN 7.77913e-05
9 *837:A *635:CIN 0.000163396
10 *5:35 *635:CIN 6.24176e-05
11 *16:39 *635:CIN 8.36586e-06
12 *78:12 *635:CIN 2.70061e-05
*RES
1 *519:X *635:CIN 42.4069 
*END

*D_NET *258 0.0019264
*CONN
*I *637:A I *D sky130_fd_sc_hd__fa_1
*I *518:X O *D sky130_fd_sc_hd__and2_1
*CAP
1 *637:A 0.000377568
2 *518:X 0.000377568
3 *637:A *639:A 0.000144546
4 *450:A *637:A 0
5 *505:A *637:A 0.000372379
6 *667:A *637:A 1.5254e-05
7 *6:16 *637:A 4.86647e-05
8 *14:32 *637:A 0.000186904
9 *14:43 *637:A 4.86213e-05
10 *16:39 *637:A 0.000354895
*RES
1 *518:X *637:A 34.1997 
*END

*D_NET *259 0.00102108
*CONN
*I *641:B I *D sky130_fd_sc_hd__fa_2
*I *510:X O *D sky130_fd_sc_hd__and2_4
*CAP
1 *641:B 0.000179134
2 *510:X 0.000179134
3 *551:A *641:B 0.000138468
4 *812:A *641:B 9.5991e-05
5 *816:A *641:B 6.27718e-05
6 *71:13 *641:B 0.000365578
*RES
1 *510:X *641:B 25.7876 
*END

*D_NET *260 0.000582188
*CONN
*I *643:A I *D sky130_fd_sc_hd__fa_1
*I *509:X O *D sky130_fd_sc_hd__and2_1
*CAP
1 *643:A 0.000226334
2 *509:X 0.000226334
3 *643:A *472:B 4.70529e-05
4 *643:A *384:30 3.90891e-05
5 *643:A *385:33 4.33776e-05
*RES
1 *509:X *643:A 22.8836 
*END

*D_NET *261 0.00048197
*CONN
*I *645:B I *D sky130_fd_sc_hd__fa_1
*I *508:X O *D sky130_fd_sc_hd__and2_1
*CAP
1 *645:B 8.75466e-05
2 *508:X 8.75466e-05
3 *645:B *295:24 6.50586e-05
4 *645:B *385:23 0.00011911
5 *645:A *645:B 0.000122708
*RES
1 *508:X *645:B 21.2198 
*END

*D_NET *262 0.0034164
*CONN
*I *635:B I *D sky130_fd_sc_hd__fa_1
*I *507:X O *D sky130_fd_sc_hd__and2_4
*CAP
1 *635:B 0.00167312
2 *507:X 0.00167312
3 *635:B *647:CIN 7.86825e-06
4 *635:A *635:B 2.02035e-05
5 *636:A *635:B 2.02035e-05
6 *837:A *635:B 2.18821e-05
*RES
1 *507:X *635:B 29.5454 
*END

*D_NET *263 0.000218422
*CONN
*I *637:B I *D sky130_fd_sc_hd__fa_1
*I *506:X O *D sky130_fd_sc_hd__and2_1
*CAP
1 *637:B 7.16117e-05
2 *506:X 7.16117e-05
3 *637:B *284:20 2.12377e-05
4 *450:A *637:B 5.39608e-05
*RES
1 *506:X *637:B 20.4964 
*END

*D_NET *264 0.00112073
*CONN
*I *639:A I *D sky130_fd_sc_hd__fa_1
*I *505:X O *D sky130_fd_sc_hd__and2_1
*CAP
1 *639:A 0.000295882
2 *505:X 0.000295882
3 *639:A *637:CIN 5.82702e-05
4 *639:A *639:B 0
5 *639:A *667:B 2.95254e-05
6 *639:A *405:12 0.000217937
7 *637:A *639:A 0.000144546
8 *667:A *639:A 7.86847e-05
*RES
1 *505:X *639:A 26.1563 
*END

*D_NET *265 0.00306777
*CONN
*I *641:CIN I *D sky130_fd_sc_hd__fa_2
*I *502:X O *D sky130_fd_sc_hd__and2_4
*CAP
1 *641:CIN 0
2 *502:X 0.00101499
3 *265:18 0.00101499
4 *265:18 *470:B 7.2817e-05
5 *265:18 *510:A 1.38872e-05
6 *265:18 *288:20 6.13538e-05
7 *265:18 *309:18 0.000160977
8 *265:18 *396:10 2.72089e-05
9 *265:18 *396:19 3.94229e-05
10 *265:18 *416:22 0.000113309
11 *502:A *265:18 1.92336e-05
12 *552:A1 *265:18 8.29168e-05
13 *552:A2 *265:18 0.000112432
14 *598:A1 *265:18 6.12686e-06
15 *598:A2 *265:18 8.52652e-05
16 *641:A *265:18 8.9478e-05
17 *9:14 *265:18 0.000111708
18 *136:8 *265:18 3.42017e-05
19 *140:18 *265:18 7.45722e-06
20 *226:16 *265:18 0
*RES
1 *502:X *265:18 41.6899 
2 *265:18 *641:CIN 9.24915 
*END

*D_NET *266 0.00242849
*CONN
*I *640:B I *D sky130_fd_sc_hd__fa_2
*I *451:X O *D sky130_fd_sc_hd__and2_4
*CAP
1 *640:B 0.000365287
2 *451:X 0.000365287
3 *640:B *555:A 6.27718e-05
4 *640:B *389:79 0.000273939
5 *640:B *395:57 0.000984201
6 *561:C *640:B 0.000203833
7 *580:A2 *640:B 0.000173175
*RES
1 *451:X *640:B 36.6632 
*END

*D_NET *267 0.0012914
*CONN
*I *643:CIN I *D sky130_fd_sc_hd__fa_1
*I *500:X O *D sky130_fd_sc_hd__and2_1
*CAP
1 *643:CIN 0.000338974
2 *500:X 0.000338974
3 *643:CIN *472:B 1.88152e-05
4 *643:CIN *652:B 8.03393e-06
5 *643:CIN *384:30 0
6 *509:A *643:CIN 0.000318331
7 *837:A *643:CIN 0.000224876
8 *12:26 *643:CIN 4.33979e-05
*RES
1 *500:X *643:CIN 37.0115 
*END

*D_NET *268 0.000957801
*CONN
*I *646:CIN I *D sky130_fd_sc_hd__fa_1
*I *499:X O *D sky130_fd_sc_hd__and2_1
*CAP
1 *646:CIN 0.000283206
2 *499:X 0.000283206
3 *646:CIN *653:CIN 2.36728e-05
4 *646:CIN *384:30 0.000160999
5 *635:CIN *646:CIN 0
6 *187:6 *646:CIN 0.000206718
*RES
1 *499:X *646:CIN 36.2853 
*END

*D_NET *269 0.000594915
*CONN
*I *636:B I *D sky130_fd_sc_hd__fa_1
*I *455:X O *D sky130_fd_sc_hd__and2_1
*CAP
1 *636:B 0.000202156
2 *455:X 0.000202156
3 *636:B *384:10 0
4 *13:30 *636:B 3.84569e-05
5 *16:39 *636:B 0.000152146
*RES
1 *455:X *636:B 22.7442 
*END

*D_NET *270 0.000899384
*CONN
*I *637:CIN I *D sky130_fd_sc_hd__fa_1
*I *454:X O *D sky130_fd_sc_hd__and2_1
*CAP
1 *637:CIN 0.000384149
2 *454:X 0.000384149
3 *639:A *637:CIN 5.82702e-05
4 *667:A *637:CIN 7.28157e-05
*RES
1 *454:X *637:CIN 36.1543 
*END

*D_NET *271 0.000402517
*CONN
*I *639:B I *D sky130_fd_sc_hd__fa_1
*I *447:X O *D sky130_fd_sc_hd__and2_1
*CAP
1 *639:B 0.000131886
2 *447:X 0.000131886
3 *639:B *639:CIN 0
4 *639:B *667:B 7.50872e-05
5 *639:B *405:12 6.3657e-05
6 *639:A *639:B 0
*RES
1 *447:X *639:B 21.2198 
*END

*D_NET *272 0.00145088
*CONN
*I *649:B I *D sky130_fd_sc_hd__fa_1
*I *444:X O *D sky130_fd_sc_hd__and2_1
*CAP
1 *649:B 0.000418181
2 *444:X 0.000418181
3 *649:B *649:CIN 1.4091e-06
4 *649:A *649:B 0.000613107
*RES
1 *444:X *649:B 16.9774 
*END

*D_NET *273 0.0012198
*CONN
*I *643:B I *D sky130_fd_sc_hd__fa_1
*I *443:X O *D sky130_fd_sc_hd__and2_1
*CAP
1 *643:B 0.000429093
2 *443:X 0.000429093
3 *643:B *469:A 0.000123582
4 *643:B *587:B 0
5 *643:B *385:61 0
6 *588:B *643:B 0
7 *601:B *643:B 0
8 *837:A *643:B 9.16992e-05
9 *12:26 *643:B 0.000118742
10 *184:12 *643:B 2.75937e-05
*RES
1 *443:X *643:B 27.9083 
*END

*D_NET *274 0.000930015
*CONN
*I *646:A I *D sky130_fd_sc_hd__fa_1
*I *442:X O *D sky130_fd_sc_hd__and2_1
*CAP
1 *646:A 0.000306653
2 *442:X 0.000306653
3 *646:A *652:CIN 4.0821e-05
4 *646:A *383:55 8.87576e-05
5 *646:A *383:63 0.00011818
6 *442:B *646:A 1.00846e-05
7 *652:A *646:A 5.88662e-05
*RES
1 *442:X *646:A 26.0663 
*END

*D_NET *275 0.000268612
*CONN
*I *647:B I *D sky130_fd_sc_hd__fa_1
*I *441:X O *D sky130_fd_sc_hd__and2_1
*CAP
1 *647:B 7.12939e-05
2 *441:X 7.12939e-05
3 *647:B *648:CIN 6.23761e-05
4 *208:14 *647:B 6.36477e-05
*RES
1 *441:X *647:B 11.552 
*END

*D_NET *276 0.000778288
*CONN
*I *638:B I *D sky130_fd_sc_hd__fa_1
*I *439:X O *D sky130_fd_sc_hd__and2_1
*CAP
1 *638:B 0.000107058
2 *439:X 0.000107058
3 *638:B *638:CIN 0.000417204
4 *638:B *670:B 3.46069e-05
5 *439:B *638:B 0.000112361
*RES
1 *439:X *638:B 14.3491 
*END

*D_NET *277 0.000500189
*CONN
*I *639:CIN I *D sky130_fd_sc_hd__fa_1
*I *437:X O *D sky130_fd_sc_hd__and2_1
*CAP
1 *639:CIN 0.000182216
2 *437:X 0.000182216
3 *639:CIN *667:B 0.000135756
4 *639:B *639:CIN 0
5 *650:A *639:CIN 0
*RES
1 *437:X *639:CIN 32.2721 
*END

*D_NET *278 0.00231565
*CONN
*I *649:CIN I *D sky130_fd_sc_hd__fa_1
*I *435:X O *D sky130_fd_sc_hd__and2_1
*CAP
1 *649:CIN 0.000753466
2 *435:X 0.000753466
3 *649:CIN *435:B 0.000122378
4 *649:CIN *444:A 6.65203e-05
5 *649:CIN *650:CIN 6.08467e-05
6 *649:CIN *651:CIN 0.000114909
7 *649:CIN *383:24 5.07314e-05
8 *649:CIN *383:35 4.09471e-05
9 *649:CIN *390:6 9.39797e-05
10 *440:A *649:CIN 0.000107729
11 *649:A *649:CIN 0.000149268
12 *649:B *649:CIN 1.4091e-06
*RES
1 *435:X *649:CIN 47.0535 
*END

*D_NET *279 0.00260378
*CONN
*I *651:CIN I *D sky130_fd_sc_hd__fa_1
*I *433:X O *D sky130_fd_sc_hd__and2_1
*CAP
1 *651:CIN 0.000678367
2 *433:X 0.000678367
3 *651:CIN *433:A 0.000222149
4 *651:CIN *650:CIN 0.000357884
5 *651:CIN *673:B 1.92793e-05
6 *651:CIN *305:8 3.948e-05
7 *440:A *651:CIN 0.000115909
8 *649:CIN *651:CIN 0.000114909
9 *650:A *651:CIN 7.26465e-05
10 *650:B *651:CIN 0.000304791
11 *54:10 *651:CIN 0
*RES
1 *433:X *651:CIN 47.9614 
*END

*D_NET *280 0.000231208
*CONN
*I *657:B I *D sky130_fd_sc_hd__ha_1
*I *503:X O *D sky130_fd_sc_hd__and2_1
*CAP
1 *657:B 9.28632e-05
2 *503:X 9.28632e-05
3 *655:A *657:B 0
4 *5:12 *657:B 4.54816e-05
*RES
1 *503:X *657:B 30.1608 
*END

*D_NET *281 0.000565606
*CONN
*I *674:B I *D sky130_fd_sc_hd__ha_1
*I *449:X O *D sky130_fd_sc_hd__and2_1
*CAP
1 *674:B 0.000138541
2 *449:X 0.000138541
3 *674:B *449:A 1.65872e-05
4 *674:B *382:99 0.000193252
5 *655:A *674:B 7.86847e-05
*RES
1 *449:X *674:B 30.7476 
*END

*D_NET *282 0.00213983
*CONN
*I *636:CIN I *D sky130_fd_sc_hd__fa_1
*I *635:SUM O *D sky130_fd_sc_hd__fa_1
*CAP
1 *636:CIN 0.000784354
2 *635:SUM 0.000784354
3 *636:CIN *460:B 3.00835e-06
4 *636:CIN *467:A1 0.000175041
5 *636:CIN *284:20 0
6 *460:A *636:CIN 1.38872e-05
7 *507:B *636:CIN 5.3633e-05
8 *635:A *636:CIN 0
9 *635:CIN *636:CIN 0
10 *636:A *636:CIN 0.000190811
11 *669:A *636:CIN 2.91831e-05
12 *6:32 *636:CIN 5.25257e-05
13 *13:30 *636:CIN 1.06049e-05
14 *14:43 *636:CIN 4.12111e-05
15 *81:8 *636:CIN 1.21461e-06
*RES
1 *635:SUM *636:CIN 48.4641 
*END

*D_NET *283 0.0016951
*CONN
*I *647:CIN I *D sky130_fd_sc_hd__fa_1
*I *636:SUM O *D sky130_fd_sc_hd__fa_1
*CAP
1 *647:CIN 0.000431407
2 *636:SUM 0.000431407
3 *647:CIN *284:20 0.000103756
4 *457:B *647:CIN 0.000203993
5 *525:B *647:CIN 0
6 *635:B *647:CIN 7.86825e-06
7 *636:A *647:CIN 2.9157e-05
8 *644:CIN *647:CIN 8.94145e-05
9 *815:A *647:CIN 6.50586e-05
10 *835:A *647:CIN 3.16904e-05
11 *13:24 *647:CIN 0.000148144
12 *13:30 *647:CIN 0.000153202
*RES
1 *636:SUM *647:CIN 41.3388 
*END

*D_NET *284 0.00575938
*CONN
*I *638:CIN I *D sky130_fd_sc_hd__fa_1
*I *637:SUM O *D sky130_fd_sc_hd__fa_1
*CAP
1 *638:CIN 0.0011057
2 *637:SUM 0.000607605
3 *284:20 0.0017133
4 *638:CIN *670:B 3.86207e-06
5 *439:B *638:CIN 1.3808e-05
6 *450:A *284:20 0
7 *457:B *284:20 3.82228e-05
8 *519:A *638:CIN 0.0010363
9 *636:A *284:20 0
10 *636:CIN *284:20 0
11 *637:B *284:20 2.12377e-05
12 *638:B *638:CIN 0.000417204
13 *644:B *284:20 8.36586e-06
14 *647:CIN *284:20 0.000103756
15 *835:A *284:20 0.000577663
16 *6:32 *284:20 0
17 *15:25 *638:CIN 0.000112361
*RES
1 *637:SUM *284:20 43.4352 
2 *284:20 *638:CIN 28.2986 
*END

*D_NET *285 0.00126313
*CONN
*I *670:B I *D sky130_fd_sc_hd__ha_1
*I *638:SUM O *D sky130_fd_sc_hd__fa_1
*CAP
1 *670:B 0.000505716
2 *638:SUM 0.000505716
3 *638:B *670:B 3.46069e-05
4 *638:CIN *670:B 3.86207e-06
5 *670:A *670:B 6.27718e-05
6 *673:A *670:B 0.000103788
7 *8:14 *670:B 8.36586e-06
8 *208:14 *670:B 3.83021e-05
*RES
1 *638:SUM *670:B 36.8749 
*END

*D_NET *286 0.00130978
*CONN
*I *667:B I *D sky130_fd_sc_hd__ha_1
*I *639:SUM O *D sky130_fd_sc_hd__fa_1
*CAP
1 *667:B 0.000462814
2 *639:SUM 0.000462814
3 *667:B *435:B 7.87126e-05
4 *667:B *383:24 0
5 *505:A *667:B 0
6 *639:A *667:B 2.95254e-05
7 *639:B *667:B 7.50872e-05
8 *639:CIN *667:B 0.000135756
9 *649:A *667:B 6.50727e-05
10 *650:A *667:B 0
11 *667:A *667:B 0
*RES
1 *639:SUM *667:B 37.7026 
*END

*D_NET *287 0.00270464
*CONN
*I *672:B I *D sky130_fd_sc_hd__ha_1
*I *667:SUM O *D sky130_fd_sc_hd__ha_1
*CAP
1 *672:B 0.000692501
2 *667:SUM 0.000692501
3 *672:B *751:A 7.20265e-05
4 *649:A *672:B 0.000634105
5 *650:B *672:B 0.000215291
6 *672:A *672:B 0.000273777
7 *814:A *672:B 9.75356e-05
8 *820:A *672:B 2.69064e-05
*RES
1 *667:SUM *672:B 44.0876 
*END

*D_NET *288 0.00840359
*CONN
*I *550:B1 I *D sky130_fd_sc_hd__a21oi_2
*I *549:A I *D sky130_fd_sc_hd__xor2_1
*I *553:A3 I *D sky130_fd_sc_hd__a31o_2
*I *640:SUM O *D sky130_fd_sc_hd__fa_2
*CAP
1 *550:B1 0
2 *549:A 3.6352e-05
3 *553:A3 0.000320956
4 *640:SUM 0.00130611
5 *288:26 0.000742606
6 *288:20 0.00150488
7 *288:14 0.0024257
8 *553:A3 *548:A 2.58757e-05
9 *553:A3 *548:B 7.26748e-05
10 *553:A3 *382:99 8.36429e-06
11 *288:14 *539:A1 7.69537e-05
12 *288:14 *387:77 1.32043e-05
13 *288:20 *547:B 3.79755e-05
14 *288:20 *289:12 0.000707778
15 *288:20 *387:81 0.00025233
16 *288:26 *510:A 1.1957e-05
17 *288:26 *510:B 0.000156076
18 *539:A2 *288:14 5.05229e-05
19 *549:B *553:A3 3.67089e-06
20 *552:A2 *288:26 2.44599e-05
21 *571:B *288:14 7.28567e-06
22 *640:CIN *288:14 1.47046e-05
23 *812:A *288:20 0.000138453
24 *812:A *288:26 0.00011815
25 *5:12 *288:20 0.000131452
26 *5:12 *288:26 0.00011815
27 *136:8 *288:20 5.19222e-06
28 *225:10 *288:14 3.03926e-05
29 *265:18 *288:20 6.13538e-05
*RES
1 *640:SUM *288:14 38.016 
2 *288:14 *288:20 23.9694 
3 *288:20 *288:26 11.9075 
4 *288:26 *553:A3 23.5776 
5 *288:26 *549:A 10.2378 
6 *288:20 *550:B1 13.7491 
*END

*D_NET *289 0.00470401
*CONN
*I *593:A I *D sky130_fd_sc_hd__nor3_1
*I *594:A1 I *D sky130_fd_sc_hd__a21o_1
*I *595:A I *D sky130_fd_sc_hd__nor2_1
*I *641:SUM O *D sky130_fd_sc_hd__fa_2
*CAP
1 *593:A 0.000143857
2 *594:A1 0.000121764
3 *595:A 4.41965e-05
4 *641:SUM 0.000721812
5 *289:23 0.00026562
6 *289:12 0.000766009
7 *289:12 *469:B 0
8 *289:12 *534:A 3.96696e-05
9 *289:12 *547:B 3.82887e-05
10 *289:12 *565:C 6.84784e-06
11 *289:12 *565:D 0.000131995
12 *289:12 *566:B 2.71397e-05
13 *289:12 *571:D 0.000184703
14 *289:12 *576:A1 0
15 *289:12 *307:22 0
16 *289:12 *382:32 0
17 *289:12 *398:42 0.000416506
18 *571:C *289:12 0.000302363
19 *575:C *289:12 2.04806e-05
20 *577:B1 *289:12 5.39463e-05
21 *577:C1 *595:A 0.000122978
22 *577:C1 *289:12 0.000226246
23 *593:B *594:A1 7.66391e-06
24 *595:B *593:A 5.04829e-06
25 *595:B *594:A1 2.16355e-05
26 *595:B *595:A 0.0001195
27 *595:B *289:12 4.53418e-05
28 *9:14 *289:12 0
29 *136:8 *289:12 6.00782e-06
30 *176:16 *594:A1 2.58757e-05
31 *177:10 *593:A 4.1102e-05
32 *234:14 *289:12 8.96342e-05
33 *237:12 *289:12 0
34 *288:20 *289:12 0.000707778
*RES
1 *641:SUM *289:12 39.4574 
2 *289:12 *595:A 15.9964 
3 *289:12 *289:23 4.5 
4 *289:23 *594:A1 11.0817 
5 *289:23 *593:A 11.6605 
*END

*D_NET *290 0.00508068
*CONN
*I *668:B I *D sky130_fd_sc_hd__ha_2
*I *642:SUM O *D sky130_fd_sc_hd__fa_1
*CAP
1 *668:B 0.00083621
2 *642:SUM 0.00105158
3 *290:24 0.00188779
4 *668:B *467:A1 3.96285e-05
5 *290:24 *467:A1 6.64392e-05
6 *290:24 *294:22 0.000213493
7 *290:24 *391:10 8.66674e-05
8 *521:A *668:B 7.43896e-05
9 *521:A *290:24 1.88014e-05
10 *523:A *668:B 5.51924e-05
11 *642:A *290:24 9.29777e-05
12 *644:CIN *290:24 3.81368e-05
13 *668:A *668:B 0.000468418
14 *4:12 *290:24 1.83992e-05
15 *15:23 *290:24 6.27782e-05
16 *84:8 *290:24 6.97748e-05
*RES
1 *642:SUM *290:24 41.204 
2 *290:24 *668:B 23.1625 
*END

*D_NET *291 0.00180562
*CONN
*I *652:CIN I *D sky130_fd_sc_hd__fa_1
*I *668:SUM O *D sky130_fd_sc_hd__ha_2
*CAP
1 *652:CIN 0.000625796
2 *668:SUM 0.000625796
3 *652:CIN *653:CIN 0.000281598
4 *652:CIN *654:CIN 0
5 *652:CIN *661:A 0.000160047
6 *652:CIN *383:44 0
7 *652:CIN *383:55 0
8 *638:A *652:CIN 0
9 *646:A *652:CIN 4.0821e-05
10 *648:A *652:CIN 0
11 *208:14 *652:CIN 7.15593e-05
*RES
1 *668:SUM *652:CIN 45.2815 
*END

*D_NET *292 0.000778932
*CONN
*I *669:B I *D sky130_fd_sc_hd__ha_4
*I *643:SUM O *D sky130_fd_sc_hd__fa_1
*CAP
1 *669:B 0.000299862
2 *643:SUM 0.000299862
3 *467:A3 *669:B 5.04829e-06
4 *669:A *669:B 0.000110458
5 *187:6 *669:B 6.37016e-05
*RES
1 *643:SUM *669:B 34.7664 
*END

*D_NET *293 0.00137057
*CONN
*I *652:B I *D sky130_fd_sc_hd__fa_1
*I *669:SUM O *D sky130_fd_sc_hd__ha_4
*CAP
1 *652:B 0.000495492
2 *669:SUM 0.000495492
3 *652:B *661:A 0.00015901
4 *643:CIN *652:B 8.03393e-06
5 *654:A *652:B 6.27782e-05
6 *837:A *652:B 3.93047e-05
7 *187:6 *652:B 0.000110458
*RES
1 *669:SUM *652:B 30.202 
*END

*D_NET *294 0.00314306
*CONN
*I *645:CIN I *D sky130_fd_sc_hd__fa_1
*I *644:SUM O *D sky130_fd_sc_hd__fa_1
*CAP
1 *645:CIN 0
2 *644:SUM 0.00068785
3 *294:22 0.00068785
4 *294:22 *388:16 1.28326e-05
5 *294:22 *389:32 1.45799e-05
6 *294:22 *391:10 0
7 *294:22 *391:18 9.58242e-05
8 *294:22 *394:16 8.166e-05
9 *464:B *294:22 3.40432e-05
10 *464:C *294:22 0.000196653
11 *604:C1 *294:22 8.95297e-05
12 *805:A *294:22 6.46815e-05
13 *824:A *294:22 6.08467e-05
14 *85:22 *294:22 0.000802384
15 *87:10 *294:22 0.000100828
16 *290:24 *294:22 0.000213493
*RES
1 *644:SUM *294:22 43.5293 
2 *294:22 *645:CIN 9.24915 
*END

*D_NET *295 0.00543534
*CONN
*I *653:B I *D sky130_fd_sc_hd__fa_2
*I *645:SUM O *D sky130_fd_sc_hd__fa_1
*CAP
1 *653:B 0.000537751
2 *645:SUM 0.000961078
3 *295:24 0.00149883
4 *295:24 *462:B 4.0752e-05
5 *295:24 *508:B 4.58003e-05
6 *295:24 *388:16 3.14978e-05
7 *295:24 *388:33 7.04109e-05
8 *295:24 *391:18 7.04109e-05
9 *610:B1 *295:24 0.000161234
10 *645:B *295:24 6.50586e-05
11 *653:A *653:B 0.00134697
12 *653:A *295:24 0.000290178
13 *13:18 *295:24 6.59083e-05
14 *85:22 *295:24 0.00024946
*RES
1 *645:SUM *295:24 37.6061 
2 *295:24 *653:B 15.6374 
*END

*D_NET *296 0.001652
*CONN
*I *653:CIN I *D sky130_fd_sc_hd__fa_2
*I *646:SUM O *D sky130_fd_sc_hd__fa_1
*CAP
1 *653:CIN 0.000646715
2 *646:SUM 0.000646715
3 *653:CIN *654:CIN 2.99412e-05
4 *646:CIN *653:CIN 2.36728e-05
5 *652:CIN *653:CIN 0.000281598
6 *653:A *653:CIN 3.67474e-06
7 *187:6 *653:CIN 1.96799e-05
*RES
1 *646:SUM *653:CIN 39.6391 
*END

*D_NET *297 0.00333417
*CONN
*I *648:CIN I *D sky130_fd_sc_hd__fa_2
*I *647:SUM O *D sky130_fd_sc_hd__fa_1
*CAP
1 *648:CIN 0.00118978
2 *647:SUM 0.00118978
3 *648:CIN *675:B 4.89385e-06
4 *525:B *648:CIN 2.41274e-06
5 *647:A *648:CIN 1.31657e-05
6 *647:B *648:CIN 6.23761e-05
7 *208:14 *648:CIN 0.000871755
*RES
1 *647:SUM *648:CIN 37.7225 
*END

*D_NET *298 0.00212364
*CONN
*I *675:B I *D sky130_fd_sc_hd__ha_4
*I *648:SUM O *D sky130_fd_sc_hd__fa_2
*CAP
1 *675:B 0.000663555
2 *648:SUM 0.000663555
3 *648:B *675:B 6.02757e-05
4 *648:CIN *675:B 4.89385e-06
5 *675:A *675:B 0.000423859
6 *55:10 *675:B 0.000278114
7 *208:14 *675:B 2.93863e-05
*RES
1 *648:SUM *675:B 32.7251 
*END

*D_NET *299 0.000783999
*CONN
*I *671:B I *D sky130_fd_sc_hd__ha_1
*I *670:SUM O *D sky130_fd_sc_hd__ha_1
*CAP
1 *671:B 0.000305478
2 *670:SUM 0.000305478
3 *660:A *671:B 0.000118634
4 *208:14 *671:B 5.4409e-05
*RES
1 *670:SUM *671:B 23.6585 
*END

*D_NET *300 0.000630655
*CONN
*I *659:A I *D sky130_fd_sc_hd__ha_4
*I *671:SUM O *D sky130_fd_sc_hd__ha_1
*CAP
1 *659:A 0.00018476
2 *671:SUM 0.00018476
3 *39:18 *659:A 0.000261135
*RES
1 *671:SUM *659:A 32.6874 
*END

*D_NET *301 0.00049803
*CONN
*I *673:B I *D sky130_fd_sc_hd__ha_1
*I *672:SUM O *D sky130_fd_sc_hd__ha_1
*CAP
1 *673:B 0.000239375
2 *672:SUM 0.000239375
3 *440:A *673:B 0
4 *651:CIN *673:B 1.92793e-05
5 *54:10 *673:B 0
*RES
1 *672:SUM *673:B 31.9934 
*END

*D_NET *302 0.000396158
*CONN
*I *660:B I *D sky130_fd_sc_hd__ha_1
*I *673:SUM O *D sky130_fd_sc_hd__ha_1
*CAP
1 *660:B 0.000133722
2 *673:SUM 0.000133722
3 *54:25 *660:B 1.6352e-05
4 *54:31 *660:B 0.000112361
*RES
1 *673:SUM *660:B 30.193 
*END

*D_NET *303 0.00159311
*CONN
*I *650:CIN I *D sky130_fd_sc_hd__fa_1
*I *649:SUM O *D sky130_fd_sc_hd__fa_1
*CAP
1 *650:CIN 0.000496909
2 *649:SUM 0.000496909
3 *650:CIN *666:B 1.55462e-05
4 *444:B *650:CIN 0
5 *649:CIN *650:CIN 6.08467e-05
6 *650:B *650:CIN 0.00016502
7 *651:CIN *650:CIN 0.000357884
8 *7:10 *650:CIN 0
*RES
1 *649:SUM *650:CIN 37.4536 
*END

*D_NET *304 0.000961745
*CONN
*I *666:B I *D sky130_fd_sc_hd__ha_4
*I *650:SUM O *D sky130_fd_sc_hd__fa_1
*CAP
1 *666:B 0.000195307
2 *650:SUM 0.000195307
3 *666:B *751:A 0.000207379
4 *650:A *666:B 0.000154145
5 *650:B *666:B 0.000183721
6 *650:CIN *666:B 1.55462e-05
7 *53:10 *666:B 1.03403e-05
*RES
1 *650:SUM *666:B 33.9625 
*END

*D_NET *305 0.00358263
*CONN
*I *489:C1 I *D sky130_fd_sc_hd__o211a_1
*I *785:A I *D sky130_fd_sc_hd__buf_4
*I *651:SUM O *D sky130_fd_sc_hd__fa_1
*CAP
1 *489:C1 0.00025251
2 *785:A 0.000180451
3 *651:SUM 0.000768265
4 *305:8 0.00120123
5 *785:A *530:A 0.000271602
6 *490:B *785:A 0
7 *492:A *785:A 0.000143032
8 *530:B *489:C1 0
9 *530:B *785:A 0.000267404
10 *651:CIN *305:8 3.948e-05
11 *57:19 *489:C1 9.202e-05
12 *57:19 *785:A 0.000129609
13 *57:36 *489:C1 0.000204994
14 *57:49 *489:C1 3.20407e-05
*RES
1 *651:SUM *305:8 24.4554 
2 *305:8 *785:A 21.4297 
3 *305:8 *489:C1 20.6374 
*END

*D_NET *306 0.00147088
*CONN
*I *655:CIN I *D sky130_fd_sc_hd__fa_2
*I *665:B I *D sky130_fd_sc_hd__ha_1
*I *674:SUM O *D sky130_fd_sc_hd__ha_1
*CAP
1 *655:CIN 0.000283906
2 *665:B 0.000258519
3 *674:SUM 0.000542425
4 *655:A *655:CIN 9.4814e-05
5 *665:A *665:B 0.000271188
6 *760:A *655:CIN 2.00333e-05
7 *51:12 *655:CIN 0
*RES
1 *674:SUM *665:B 27.0103 
2 *674:SUM *655:CIN 35.1821 
*END

*D_NET *307 0.00825958
*CONN
*I *658:B I *D sky130_fd_sc_hd__ha_4
*I *542:Y O *D sky130_fd_sc_hd__a21oi_2
*CAP
1 *658:B 0.00124396
2 *542:Y 0.00107213
3 *307:22 0.00231609
4 *658:B *522:B 5.6848e-06
5 *658:B *565:D 0.000406794
6 *658:B *566:A 3.34025e-05
7 *658:B *398:66 0.000108388
8 *307:22 P[0] 0.000296024
9 *307:22 *534:A 4.27003e-05
10 *307:22 *535:A 8.17309e-05
11 *307:22 *547:B 0.000271044
12 *307:22 *564:B 6.4309e-05
13 *307:22 *571:A 4.20184e-06
14 *307:22 *576:A1 0.000156387
15 *307:22 *385:84 7.04109e-05
16 *307:22 *388:109 6.61114e-05
17 *522:A *658:B 0.000464127
18 *542:A2 *307:22 0.000190679
19 *571:C *658:B 0.000111722
20 *571:C *307:22 0
21 *658:A *658:B 0.000634873
22 *752:A *307:22 0
23 *37:10 *658:B 0.000273022
24 *125:18 *307:22 0.000149261
25 *157:8 *658:B 0.000115934
26 *234:14 *307:22 8.05819e-05
27 *289:12 *307:22 0
*RES
1 *542:Y *307:22 49.3982 
2 *307:22 *658:B 42.2751 
*END

*D_NET *308 0.000997553
*CONN
*I *662:A I *D sky130_fd_sc_hd__ha_2
*I *552:Y O *D sky130_fd_sc_hd__a21oi_1
*CAP
1 *662:A 0.000173943
2 *552:Y 0.000173943
3 *662:A *416:26 0.000221985
4 *45:8 *662:A 5.29538e-05
5 *234:14 *662:A 0.000374729
*RES
1 *552:Y *662:A 25.9252 
*END

*D_NET *309 0.00323935
*CONN
*I *656:B I *D sky130_fd_sc_hd__ha_4
*I *573:Y O *D sky130_fd_sc_hd__nand3_1
*CAP
1 *656:B 0
2 *573:Y 0.00107822
3 *309:18 0.00107822
4 *551:A *309:18 1.7428e-05
5 *552:A1 *309:18 0.000159519
6 *573:C *309:18 6.08467e-05
7 *641:A *309:18 0.000190134
8 *656:A *309:18 0.000464888
9 *35:10 *309:18 2.30636e-05
10 *234:14 *309:18 6.06023e-06
11 *265:18 *309:18 0.000160977
*RES
1 *573:Y *309:18 41.3944 
2 *309:18 *656:B 9.24915 
*END

*D_NET *310 0.00563994
*CONN
*I *663:B I *D sky130_fd_sc_hd__ha_1
*I *594:X O *D sky130_fd_sc_hd__a21o_1
*CAP
1 *663:B 0
2 *594:X 0.00161046
3 *310:12 0.00161046
4 *423:D1 *310:12 0
5 *615:B1 *310:12 0
6 *664:B *310:12 0.00241902
*RES
1 *594:X *310:12 46.4557 
2 *310:12 *663:B 9.24915 
*END

*D_NET *311 0.00148773
*CONN
*I *664:A I *D sky130_fd_sc_hd__ha_1
*I *615:Y O *D sky130_fd_sc_hd__o21ai_1
*CAP
1 *664:A 0.000468924
2 *615:Y 0.000468924
3 *791:A *664:A 0.000549887
*RES
1 *615:Y *664:A 36.015 
*END

*D_NET *312 0.00312445
*CONN
*I *661:A I *D sky130_fd_sc_hd__ha_4
*I *652:SUM O *D sky130_fd_sc_hd__fa_1
*CAP
1 *661:A 0.00118589
2 *652:SUM 0.00118589
3 *605:A *661:A 9.25028e-05
4 *620:B *661:A 9.50664e-05
5 *652:B *661:A 0.00015901
6 *652:CIN *661:A 0.000160047
7 *654:B *661:A 6.27718e-05
8 *661:B *661:A 5.13058e-05
9 *188:10 *661:A 6.27718e-05
10 *199:14 *661:A 6.91907e-05
*RES
1 *652:SUM *661:A 49.7113 
*END

*D_NET *313 0.000672083
*CONN
*I *654:CIN I *D sky130_fd_sc_hd__fa_2
*I *653:SUM O *D sky130_fd_sc_hd__fa_2
*CAP
1 *654:CIN 0.000174036
2 *653:SUM 0.000174036
3 *654:CIN *314:6 7.11513e-06
4 *654:CIN *383:55 9.01128e-05
5 *638:A *654:CIN 0.000151427
6 *652:CIN *654:CIN 0
7 *653:CIN *654:CIN 2.99412e-05
8 *654:A *654:CIN 4.54155e-05
*RES
1 *653:SUM *654:CIN 33.1367 
*END

*D_NET *314 0.00877779
*CONN
*I *784:A I *D sky130_fd_sc_hd__buf_6
*I *420:A I *D sky130_fd_sc_hd__nand2_8
*I *654:SUM O *D sky130_fd_sc_hd__fa_2
*CAP
1 *784:A 6.08503e-05
2 *420:A 0.00110292
3 *654:SUM 0.00200512
4 *314:6 0.00316889
5 *420:A *430:A2 3.83526e-06
6 *420:A *630:B 0
7 *420:A *339:16 0.000653785
8 *784:A *409:10 0.000122844
9 *314:6 *430:A2 0.000216826
10 *430:A1 *420:A 6.55453e-05
11 *430:A1 *314:6 9.81288e-06
12 *487:C *420:A 8.93679e-05
13 *638:A *314:6 1.60782e-05
14 *654:A *314:6 7.27004e-05
15 *654:CIN *314:6 7.11513e-06
16 *754:A *420:A 0.000112367
17 *771:A *314:6 0.000452932
18 *780:A *420:A 8.76366e-05
19 *781:A *314:6 0.000131924
20 *40:34 *420:A 4.078e-05
21 *57:8 *420:A 3.072e-06
22 *65:22 *784:A 3.30938e-05
23 *67:20 *314:6 1.37189e-05
24 *204:14 *420:A 0.000306577
*RES
1 *654:SUM *314:6 39.9211 
2 *314:6 *420:A 49.8301 
3 *314:6 *784:A 20.4964 
*END
