*SPEF "ieee 1481-1999"
*DESIGN "exact_dadda_with_compressor"
*DATE "16:00:02 Sunday October 04, 2026"
*VENDOR "The OpenROAD Project"
*PROGRAM "OpenROAD"
*VERSION "26Q3-1499-g46ab99414e"
*DESIGN_FLOW "NAME_SCOPE LOCAL" "PIN_CAP NONE"
*DIVIDER /
*DELIMITER :
*BUS_DELIMITER []
*T_UNIT 1 NS
*C_UNIT 1 PF
*R_UNIT 1 OHM
*L_UNIT 1 HENRY

*NAME_MAP
*159 A[0]
*272 A[1]
*273 A[2]
*274 A[3]
*275 A[4]
*276 A[5]
*277 A[6]
*278 A[7]
*279 B[0]
*280 B[1]
*281 B[2]
*282 B[3]
*283 B[4]
*284 B[5]
*285 B[6]
*286 B[7]
*287 P[0]
*288 P[10]
*289 P[11]
*290 P[12]
*291 P[13]
*292 P[14]
*293 P[15]
*294 P[1]
*295 P[2]
*296 P[3]
*297 P[4]
*298 P[5]
*299 P[6]
*300 P[7]
*301 P[8]
*302 P[9]
*33 _000_
*34 _001_
*35 _002_
*36 _003_
*37 _004_
*38 _005_
*39 _006_
*40 _007_
*41 _008_
*42 _009_
*43 _010_
*44 _011_
*45 _012_
*46 _013_
*47 _014_
*48 _015_
*49 _016_
*50 _017_
*51 _018_
*52 _019_
*53 _020_
*54 _021_
*55 _022_
*56 _023_
*57 _024_
*58 _025_
*59 _026_
*60 _027_
*61 _028_
*62 _029_
*63 _030_
*64 _031_
*65 _032_
*66 _033_
*67 _034_
*68 _035_
*69 _036_
*70 _037_
*71 _038_
*72 _039_
*73 _040_
*74 _041_
*75 _042_
*76 _043_
*77 _044_
*78 _045_
*79 _046_
*80 _047_
*81 _048_
*82 _049_
*83 _050_
*84 _051_
*85 _052_
*86 _053_
*87 _054_
*88 _055_
*89 _056_
*90 _057_
*91 _058_
*92 _059_
*93 _060_
*94 _061_
*95 _062_
*96 _063_
*97 _064_
*98 _065_
*99 _066_
*100 _067_
*101 _068_
*102 _069_
*103 _070_
*104 _071_
*105 _072_
*106 _073_
*107 _074_
*108 _075_
*109 _076_
*110 _077_
*111 _078_
*112 c10_carry
*113 c10_cout
*114 c11_carry
*115 c11_cout
*116 c12_carry
*117 c12_cout
*118 c13_carry
*119 c13_cout
*120 c14_carry
*121 c1_c10_c1
*122 c1_c10_cout
*123 c1_c10_fa_c
*124 c1_c11_c1
*125 c1_c11_cout
*126 c1_c12_c1
*127 c1_c12_cout
*128 c1_c13_c1
*129 c1_c13_cout
*130 c1_c5_c1
*131 c1_c6_c1
*132 c1_c6_cout
*133 c1_c7_c1
*134 c1_c7_cout
*135 c1_c7_fa_c
*136 c1_c8_c1
*137 c1_c8_c2
*138 c1_c8_cout1
*139 c1_c8_cout2
*140 c1_c9_c1
*141 c1_c9_c2
*142 c1_c9_cout1
*143 c1_c9_cout2
*144 c2_c3_c
*145 c3_carry
*146 c3_cout
*147 c4_carry
*148 c4_cout
*149 c5_carry
*150 c5_cout
*151 c6_carry
*152 c6_cout
*153 c7_carry
*154 c7_cout
*155 c8_carry
*156 c8_cout
*157 c9_carry
*158 c9_cout
*1 net1
*10 net10
*326 net100
*327 net101
*328 net102
*329 net103
*347 net104
*348 net105
*349 net106
*330 net107
*332 net108
*333 net109
*11 net11
*334 net110
*331 net111
*350 net112
*336 net113
*337 net114
*335 net115
*339 net116
*338 net117
*351 net118
*352 net119
*12 net12
*353 net120
*354 net123
*13 net13
*357 net137
*14 net14
*358 net143
*359 net148
*360 net149
*15 net15
*16 net16
*340 net161
*361 net162
*362 net164
*356 net165
*355 net166
*17 net17
*363 net172
*364 net173
*18 net18
*19 net19
*2 net2
*20 net20
*21 net21
*22 net22
*23 net23
*24 net24
*25 net25
*26 net26
*27 net27
*28 net28
*29 net29
*3 net3
*30 net30
*31 net31
*32 net32
*4 net4
*5 net5
*6 net6
*7 net7
*303 net71
*341 net72
*342 net73
*305 net74
*306 net75
*307 net76
*308 net77
*309 net78
*304 net79
*8 net8
*310 net80
*343 net81
*311 net82
*312 net83
*313 net84
*314 net85
*315 net86
*316 net87
*317 net88
*318 net89
*9 net9
*319 net90
*320 net91
*321 net92
*344 net93
*345 net94
*346 net95
*322 net96
*323 net97
*324 net98
*325 net99
*160 pp\[10\]\[0\]
*161 pp\[11\]\[0\]
*162 pp\[12\]\[0\]
*163 pp\[13\]\[0\]
*164 pp\[14\]\[0\]
*165 pp\[15\]\[0\]
*166 pp\[16\]\[0\]
*167 pp\[17\]\[0\]
*168 pp\[18\]\[0\]
*169 pp\[19\]\[0\]
*170 pp\[1\]\[0\]
*171 pp\[20\]\[0\]
*172 pp\[21\]\[0\]
*173 pp\[22\]\[0\]
*174 pp\[23\]\[0\]
*175 pp\[24\]\[0\]
*176 pp\[25\]\[0\]
*177 pp\[26\]\[0\]
*178 pp\[27\]\[0\]
*179 pp\[28\]\[0\]
*180 pp\[29\]\[0\]
*181 pp\[2\]\[0\]
*182 pp\[30\]\[0\]
*183 pp\[31\]\[0\]
*184 pp\[32\]\[0\]
*185 pp\[33\]\[0\]
*186 pp\[34\]\[0\]
*187 pp\[35\]\[0\]
*188 pp\[36\]\[0\]
*189 pp\[37\]\[0\]
*190 pp\[38\]\[0\]
*191 pp\[39\]\[0\]
*192 pp\[3\]\[0\]
*193 pp\[40\]\[0\]
*194 pp\[41\]\[0\]
*195 pp\[42\]\[0\]
*196 pp\[43\]\[0\]
*197 pp\[44\]\[0\]
*198 pp\[45\]\[0\]
*199 pp\[46\]\[0\]
*200 pp\[47\]\[0\]
*201 pp\[48\]\[0\]
*202 pp\[49\]\[0\]
*203 pp\[4\]\[0\]
*204 pp\[50\]\[0\]
*205 pp\[51\]\[0\]
*206 pp\[52\]\[0\]
*207 pp\[53\]\[0\]
*208 pp\[54\]\[0\]
*209 pp\[55\]\[0\]
*210 pp\[56\]\[0\]
*211 pp\[57\]\[0\]
*212 pp\[58\]\[0\]
*213 pp\[59\]\[0\]
*214 pp\[5\]\[0\]
*215 pp\[60\]\[0\]
*216 pp\[61\]\[0\]
*217 pp\[62\]\[0\]
*218 pp\[63\]\[0\]
*219 pp\[6\]\[0\]
*220 pp\[7\]\[0\]
*221 pp\[8\]\[0\]
*222 pp\[9\]\[0\]
*223 s1_c10_comp\.fa1\.sum
*224 s1_c10_comp\.fa2\.sum
*225 s1_c11_comp\.fa1\.sum
*226 s1_c11_comp\.fa2\.sum
*227 s1_c12_comp\.fa1\.sum
*228 s1_c12_comp\.fa2\.sum
*229 s1_c4_fa\.sum
*230 s1_c5_comp\.fa1\.sum
*231 s1_c5_comp\.fa2\.sum
*232 s1_c6_comp\.fa1\.sum
*233 s1_c6_comp\.fa2\.sum
*234 s1_c6_fa\.sum
*235 s1_c7_comp1\.fa1\.sum
*236 s1_c7_comp1\.fa2\.sum
*237 s1_c7_comp2\.fa1\.sum
*238 s1_c7_comp2\.fa2\.sum
*239 s1_c8_comp1\.fa1\.sum
*240 s1_c8_comp1\.fa2\.sum
*241 s1_c8_comp2\.fa1\.sum
*242 s1_c8_comp2\.fa2\.sum
*243 s1_c9_comp\.fa1\.sum
*244 s1_c9_comp\.fa2\.sum
*245 s1_c9_fa\.sum
*246 s2_c10_comp\.fa1\.sum
*247 s2_c10_comp\.fa2\.sum
*248 s2_c11_comp\.fa1\.sum
*249 s2_c11_comp\.fa2\.sum
*250 s2_c12_comp\.fa1\.sum
*251 s2_c12_comp\.fa2\.sum
*252 s2_c13_comp\.fa1\.sum
*253 s2_c13_comp\.fa2\.sum
*254 s2_c14_fa\.sum
*255 s2_c2_ha\.sum
*256 s2_c3_comp\.fa1\.sum
*257 s2_c3_comp\.fa2\.sum
*258 s2_c4_comp\.fa1\.sum
*259 s2_c4_comp\.fa2\.sum
*260 s2_c5_comp\.fa1\.sum
*261 s2_c5_comp\.fa2\.sum
*262 s2_c6_comp\.fa1\.sum
*263 s2_c6_comp\.fa2\.sum
*264 s2_c7_comp\.fa1\.sum
*265 s2_c7_comp\.fa2\.sum
*266 s2_c8_comp\.fa1\.sum
*267 s2_c8_comp\.fa2\.sum
*268 s2_c9_comp\.fa1\.sum
*269 s2_c9_comp\.fa2\.sum
*702 FILLER_0_0
*715 FILLER_0_104
*716 FILLER_0_112
*717 FILLER_0_121
*718 FILLER_0_129
*719 FILLER_0_137
*720 FILLER_0_145
*721 FILLER_0_147
*704 FILLER_0_16
*705 FILLER_0_20
*706 FILLER_0_26
*707 FILLER_0_31
*708 FILLER_0_51
*709 FILLER_0_59
*710 FILLER_0_66
*711 FILLER_0_70
*703 FILLER_0_8
*712 FILLER_0_85
*713 FILLER_0_89
*714 FILLER_0_96
*854 FILLER_10_0
*862 FILLER_10_127
*863 FILLER_10_135
*864 FILLER_10_137
*865 FILLER_10_147
*856 FILLER_10_37
*857 FILLER_10_45
*855 FILLER_10_5
*858 FILLER_10_66
*859 FILLER_10_84
*860 FILLER_10_91
*861 FILLER_10_93
*866 FILLER_11_0
*871 FILLER_11_104
*872 FILLER_11_112
*868 FILLER_11_12
*873 FILLER_11_144
*867 FILLER_11_4
*869 FILLER_11_41
*870 FILLER_11_52
*874 FILLER_12_0
*890 FILLER_12_110
*891 FILLER_12_132
*892 FILLER_12_140
*877 FILLER_12_27
*878 FILLER_12_29
*879 FILLER_12_31
*880 FILLER_12_38
*875 FILLER_12_4
*881 FILLER_12_40
*882 FILLER_12_47
*883 FILLER_12_55
*876 FILLER_12_6
*884 FILLER_12_63
*885 FILLER_12_71
*886 FILLER_12_75
*887 FILLER_12_77
*888 FILLER_12_83
*889 FILLER_12_91
*893 FILLER_13_0
*904 FILLER_13_101
*905 FILLER_13_107
*906 FILLER_13_113
*894 FILLER_13_12
*907 FILLER_13_121
*908 FILLER_13_128
*895 FILLER_13_14
*909 FILLER_13_142
*910 FILLER_13_146
*896 FILLER_13_32
*897 FILLER_13_34
*898 FILLER_13_46
*899 FILLER_13_54
*900 FILLER_13_58
*901 FILLER_13_61
*902 FILLER_13_82
*903 FILLER_13_99
*911 FILLER_14_0
*922 FILLER_14_103
*923 FILLER_14_121
*924 FILLER_14_143
*925 FILLER_14_147
*912 FILLER_14_27
*913 FILLER_14_29
*914 FILLER_14_31
*915 FILLER_14_38
*916 FILLER_14_44
*917 FILLER_14_46
*918 FILLER_14_67
*919 FILLER_14_69
*920 FILLER_14_91
*921 FILLER_14_97
*935 FILLER_15_113
*936 FILLER_15_119
*937 FILLER_15_121
*938 FILLER_15_130
*939 FILLER_15_132
*940 FILLER_15_147
*928 FILLER_15_16
*929 FILLER_15_20
*930 FILLER_15_25
*931 FILLER_15_30
*932 FILLER_15_38
*926 FILLER_15_4
*933 FILLER_15_46
*934 FILLER_15_77
*927 FILLER_15_8
*941 FILLER_16_0
*950 FILLER_16_111
*951 FILLER_16_119
*952 FILLER_16_138
*953 FILLER_16_146
*943 FILLER_16_18
*944 FILLER_16_22
*942 FILLER_16_4
*945 FILLER_16_44
*946 FILLER_16_52
*947 FILLER_16_83
*948 FILLER_16_87
*949 FILLER_16_89
*962 FILLER_17_100
*963 FILLER_17_104
*964 FILLER_17_111
*965 FILLER_17_135
*966 FILLER_17_141
*967 FILLER_17_145
*968 FILLER_17_147
*955 FILLER_17_22
*956 FILLER_17_24
*954 FILLER_17_4
*957 FILLER_17_47
*958 FILLER_17_51
*959 FILLER_17_53
*960 FILLER_17_70
*961 FILLER_17_78
*969 FILLER_18_0
*983 FILLER_18_119
*971 FILLER_18_19
*972 FILLER_18_21
*973 FILLER_18_26
*974 FILLER_18_31
*975 FILLER_18_35
*976 FILLER_18_56
*977 FILLER_18_77
*970 FILLER_18_8
*978 FILLER_18_85
*979 FILLER_18_89
*980 FILLER_18_91
*981 FILLER_18_93
*982 FILLER_18_99
*984 FILLER_19_0
*990 FILLER_19_101
*991 FILLER_19_118
*992 FILLER_19_121
*993 FILLER_19_123
*994 FILLER_19_136
*995 FILLER_19_144
*986 FILLER_19_24
*987 FILLER_19_49
*985 FILLER_19_5
*988 FILLER_19_76
*989 FILLER_19_80
*722 FILLER_1_0
*728 FILLER_1_100
*729 FILLER_1_108
*730 FILLER_1_119
*724 FILLER_1_12
*731 FILLER_1_121
*732 FILLER_1_129
*733 FILLER_1_139
*734 FILLER_1_147
*725 FILLER_1_20
*726 FILLER_1_59
*727 FILLER_1_61
*723 FILLER_1_8
*996 FILLER_20_0
*1006 FILLER_20_107
*1007 FILLER_20_109
*1008 FILLER_20_130
*1009 FILLER_20_132
*1010 FILLER_20_138
*1011 FILLER_20_146
*998 FILLER_20_37
*999 FILLER_20_47
*1000 FILLER_20_51
*1001 FILLER_20_66
*1002 FILLER_20_74
*997 FILLER_20_8
*1003 FILLER_20_82
*1004 FILLER_20_91
*1005 FILLER_20_99
*1012 FILLER_21_0
*1023 FILLER_21_113
*1024 FILLER_21_119
*1025 FILLER_21_121
*1026 FILLER_21_132
*1027 FILLER_21_139
*1013 FILLER_21_2
*1014 FILLER_21_44
*1015 FILLER_21_57
*1016 FILLER_21_59
*1017 FILLER_21_61
*1018 FILLER_21_63
*1019 FILLER_21_70
*1020 FILLER_21_78
*1021 FILLER_21_82
*1022 FILLER_21_90
*1028 FILLER_22_0
*1038 FILLER_22_137
*1029 FILLER_22_22
*1030 FILLER_22_29
*1031 FILLER_22_31
*1032 FILLER_22_41
*1033 FILLER_22_62
*1034 FILLER_22_64
*1035 FILLER_22_72
*1036 FILLER_22_77
*1037 FILLER_22_88
*1039 FILLER_23_0
*1047 FILLER_23_111
*1048 FILLER_23_121
*1049 FILLER_23_138
*1050 FILLER_23_146
*1041 FILLER_23_31
*1042 FILLER_23_49
*1043 FILLER_23_51
*1044 FILLER_23_56
*1045 FILLER_23_67
*1046 FILLER_23_69
*1040 FILLER_23_8
*735 FILLER_2_0
*743 FILLER_2_103
*744 FILLER_2_105
*745 FILLER_2_112
*746 FILLER_2_120
*747 FILLER_2_128
*748 FILLER_2_138
*749 FILLER_2_146
*737 FILLER_2_16
*738 FILLER_2_41
*739 FILLER_2_52
*740 FILLER_2_77
*736 FILLER_2_8
*741 FILLER_2_82
*742 FILLER_2_96
*750 FILLER_3_0
*761 FILLER_3_102
*762 FILLER_3_109
*752 FILLER_3_16
*753 FILLER_3_22
*754 FILLER_3_34
*755 FILLER_3_42
*756 FILLER_3_59
*751 FILLER_3_6
*757 FILLER_3_61
*758 FILLER_3_68
*759 FILLER_3_74
*760 FILLER_3_80
*763 FILLER_4_0
*774 FILLER_4_116
*765 FILLER_4_16
*766 FILLER_4_18
*767 FILLER_4_29
*768 FILLER_4_31
*769 FILLER_4_35
*770 FILLER_4_37
*771 FILLER_4_48
*764 FILLER_4_8
*772 FILLER_4_83
*773 FILLER_4_91
*775 FILLER_5_0
*787 FILLER_5_102
*788 FILLER_5_110
*789 FILLER_5_116
*790 FILLER_5_135
*791 FILLER_5_137
*792 FILLER_5_147
*777 FILLER_5_28
*778 FILLER_5_30
*779 FILLER_5_41
*780 FILLER_5_43
*781 FILLER_5_61
*782 FILLER_5_63
*783 FILLER_5_69
*784 FILLER_5_73
*776 FILLER_5_8
*785 FILLER_5_90
*786 FILLER_5_94
*793 FILLER_6_0
*803 FILLER_6_108
*804 FILLER_6_112
*805 FILLER_6_119
*795 FILLER_6_12
*796 FILLER_6_29
*797 FILLER_6_31
*798 FILLER_6_39
*799 FILLER_6_75
*794 FILLER_6_8
*800 FILLER_6_83
*801 FILLER_6_91
*802 FILLER_6_99
*806 FILLER_7_0
*820 FILLER_7_100
*821 FILLER_7_119
*808 FILLER_7_12
*822 FILLER_7_121
*823 FILLER_7_141
*824 FILLER_7_145
*825 FILLER_7_147
*809 FILLER_7_26
*810 FILLER_7_39
*811 FILLER_7_47
*812 FILLER_7_55
*813 FILLER_7_59
*814 FILLER_7_66
*815 FILLER_7_70
*816 FILLER_7_78
*807 FILLER_7_8
*817 FILLER_7_86
*818 FILLER_7_94
*819 FILLER_7_98
*826 FILLER_8_0
*840 FILLER_8_128
*841 FILLER_8_132
*842 FILLER_8_146
*828 FILLER_8_19
*829 FILLER_8_26
*830 FILLER_8_41
*831 FILLER_8_49
*827 FILLER_8_5
*832 FILLER_8_57
*833 FILLER_8_70
*834 FILLER_8_72
*835 FILLER_8_79
*836 FILLER_8_87
*837 FILLER_8_89
*838 FILLER_8_91
*839 FILLER_8_93
*843 FILLER_9_0
*850 FILLER_9_114
*851 FILLER_9_118
*852 FILLER_9_137
*853 FILLER_9_147
*846 FILLER_9_19
*847 FILLER_9_27
*844 FILLER_9_4
*848 FILLER_9_40
*845 FILLER_9_6
*849 FILLER_9_82
*557 TAP_TAPCELL_ROW_0_0
*558 TAP_TAPCELL_ROW_0_1
*559 TAP_TAPCELL_ROW_0_2
*560 TAP_TAPCELL_ROW_0_3
*579 TAP_TAPCELL_ROW_10_22
*580 TAP_TAPCELL_ROW_10_23
*581 TAP_TAPCELL_ROW_11_24
*582 TAP_TAPCELL_ROW_11_25
*583 TAP_TAPCELL_ROW_12_26
*584 TAP_TAPCELL_ROW_12_27
*585 TAP_TAPCELL_ROW_13_28
*586 TAP_TAPCELL_ROW_13_29
*587 TAP_TAPCELL_ROW_14_30
*588 TAP_TAPCELL_ROW_14_31
*589 TAP_TAPCELL_ROW_15_32
*590 TAP_TAPCELL_ROW_15_33
*591 TAP_TAPCELL_ROW_16_34
*592 TAP_TAPCELL_ROW_16_35
*593 TAP_TAPCELL_ROW_17_36
*594 TAP_TAPCELL_ROW_17_37
*595 TAP_TAPCELL_ROW_18_38
*596 TAP_TAPCELL_ROW_18_39
*597 TAP_TAPCELL_ROW_19_40
*598 TAP_TAPCELL_ROW_19_41
*561 TAP_TAPCELL_ROW_1_4
*562 TAP_TAPCELL_ROW_1_5
*599 TAP_TAPCELL_ROW_20_42
*600 TAP_TAPCELL_ROW_20_43
*601 TAP_TAPCELL_ROW_21_44
*602 TAP_TAPCELL_ROW_21_45
*603 TAP_TAPCELL_ROW_22_46
*604 TAP_TAPCELL_ROW_22_47
*605 TAP_TAPCELL_ROW_23_48
*606 TAP_TAPCELL_ROW_23_49
*607 TAP_TAPCELL_ROW_23_50
*608 TAP_TAPCELL_ROW_23_51
*563 TAP_TAPCELL_ROW_2_6
*564 TAP_TAPCELL_ROW_2_7
*565 TAP_TAPCELL_ROW_3_8
*566 TAP_TAPCELL_ROW_3_9
*567 TAP_TAPCELL_ROW_4_10
*568 TAP_TAPCELL_ROW_4_11
*569 TAP_TAPCELL_ROW_5_12
*570 TAP_TAPCELL_ROW_5_13
*571 TAP_TAPCELL_ROW_6_14
*572 TAP_TAPCELL_ROW_6_15
*573 TAP_TAPCELL_ROW_7_16
*574 TAP_TAPCELL_ROW_7_17
*575 TAP_TAPCELL_ROW_8_18
*576 TAP_TAPCELL_ROW_8_19
*577 TAP_TAPCELL_ROW_9_20
*578 TAP_TAPCELL_ROW_9_21
*365 _079_
*366 _080_
*367 _081_
*368 _082_
*369 _083_
*370 _084_
*371 _085_
*372 _086_
*373 _087_
*374 _088_
*375 _089_
*376 _090_
*377 _091_
*378 _092_
*379 _093_
*380 _094_
*381 _095_
*382 _096_
*383 _097_
*384 _098_
*385 _099_
*386 _100_
*387 _101_
*388 _102_
*389 _103_
*390 _104_
*391 _105_
*392 _106_
*393 _107_
*394 _108_
*395 _109_
*396 _110_
*397 _111_
*398 _112_
*399 _113_
*400 _114_
*401 _115_
*402 _116_
*403 _117_
*404 _118_
*405 _119_
*406 _120_
*407 _121_
*408 _122_
*409 _123_
*410 _124_
*411 _125_
*412 _126_
*413 _127_
*414 _128_
*415 _129_
*416 _130_
*417 _131_
*418 _132_
*419 _133_
*420 _134_
*421 _135_
*422 _136_
*423 _137_
*424 _138_
*425 _139_
*426 _140_
*427 _141_
*428 _142_
*429 _143_
*430 _144_
*431 _145_
*432 _146_
*433 _147_
*434 _148_
*435 _149_
*436 _150_
*437 _151_
*438 _152_
*439 _153_
*440 _154_
*441 _155_
*442 _156_
*443 _157_
*444 _158_
*445 _159_
*446 _160_
*447 _161_
*448 _162_
*449 _163_
*450 _164_
*451 _165_
*452 _166_
*453 _167_
*454 _168_
*455 _169_
*456 _170_
*457 _171_
*458 _172_
*459 _173_
*460 _174_
*461 _175_
*462 _176_
*463 _177_
*464 _178_
*465 _179_
*466 _180_
*467 _181_
*468 _182_
*469 _183_
*470 _184_
*471 _185_
*472 _186_
*473 _187_
*474 _188_
*475 _189_
*476 _190_
*477 _191_
*478 _192_
*479 _193_
*480 _194_
*481 _195_
*482 _196_
*483 _197_
*484 _198_
*485 _199_
*486 _200_
*487 _201_
*488 _202_
*489 _203_
*490 _204_
*491 _205_
*492 _206_
*493 _207_
*494 _208_
*495 _209_
*496 _210_
*497 _211_
*498 _212_
*499 _213_
*500 _214_
*501 _215_
*502 _216_
*503 _217_
*504 _218_
*505 _219_
*506 _220_
*507 _221_
*508 _222_
*509 _223_
*510 _224_
*511 _225_
*512 _226_
*513 _227_
*514 _228_
*515 _229_
*516 _230_
*517 _231_
*518 _232_
*519 _233_
*520 _234_
*521 _235_
*522 _236_
*523 _237_
*524 _238_
*525 _239_
*526 _240_
*527 _241_
*528 _242_
*529 _243_
*530 _244_
*531 _245_
*532 _246_
*533 _247_
*534 _248_
*535 _249_
*536 _250_
*537 _251_
*538 _252_
*539 _253_
*540 _254_
*541 _255_
*542 _256_
*543 _257_
*544 _258_
*545 _259_
*546 _260_
*547 _261_
*548 _262_
*549 _263_
*550 _264_
*551 _265_
*552 _266_
*553 _267_
*554 _268_
*555 _269_
*556 input1
*617 input10
*618 input11
*619 input12
*620 input13
*621 input14
*622 input15
*623 input16
*609 input2
*610 input3
*611 input4
*612 input5
*613 input6
*614 input7
*615 input8
*616 input9
*624 output17
*625 output18
*626 output19
*627 output20
*628 output21
*629 output22
*630 output23
*631 output24
*632 output25
*633 output26
*634 output27
*635 output28
*636 output29
*637 output30
*638 output31
*639 output32
*663 place100
*664 place101
*665 place102
*666 place103
*684 place104
*685 place105
*686 place106
*667 place107
*669 place108
*670 place109
*671 place110
*668 place111
*687 place112
*673 place113
*674 place114
*672 place115
*676 place116
*675 place117
*688 place118
*640 place71
*678 place72
*679 place73
*642 place74
*643 place75
*644 place76
*645 place77
*646 place78
*641 place79
*647 place80
*680 place81
*648 place82
*649 place83
*650 place84
*651 place85
*652 place86
*653 place87
*654 place88
*655 place89
*656 place90
*657 place91
*658 place92
*681 place93
*682 place94
*683 place95
*659 place96
*660 place97
*661 place98
*662 place99
*689 rebuffer119
*690 rebuffer120
*691 rebuffer123
*694 rebuffer137
*695 rebuffer143
*696 rebuffer148
*697 rebuffer149
*677 rebuffer161
*698 rebuffer162
*699 rebuffer164
*693 rebuffer165
*692 rebuffer166
*700 rebuffer172
*701 rebuffer173

*PORTS
A[0] I
A[1] I
A[2] I
A[3] I
A[4] I
A[5] I
A[6] I
A[7] I
B[0] I
B[1] I
B[2] I
B[3] I
B[4] I
B[5] I
B[6] I
B[7] I
P[0] O
P[10] O
P[11] O
P[12] O
P[13] O
P[14] O
P[15] O
P[1] O
P[2] O
P[3] O
P[4] O
P[5] O
P[6] O
P[7] O
P[8] O
P[9] O

*D_NET *159 0.00113849
*CONN
*P A[0] I
*I *556:A I *D sky130_fd_sc_hd__buf_8
*CAP
1 A[0] 0.000431101
2 *556:A 0.000431101
3 *556:A *504:B 9.92378e-06
4 *556:A *609:A 0.000104807
5 *556:A *618:A 0.000125553
6 *556:A *619:A 3.60041e-05
7 *556:A *332:25 0
*RES
1 A[0] *556:A 19.1223 
*END

*D_NET *272 0.00150552
*CONN
*P A[1] I
*I *609:A I *D sky130_fd_sc_hd__buf_2
*CAP
1 A[1] 0.000578781
2 *609:A 0.000578781
3 *609:A *610:A 0
4 *609:A *618:A 0
5 *609:A *619:A 3.96052e-05
6 *609:A *332:25 1.33885e-05
7 *609:A *351:8 0
8 *503:B *609:A 0.000177787
9 *503:CIN *609:A 1.23668e-05
10 *556:A *609:A 0.000104807
*RES
1 A[1] *609:A 22.5208 
*END

*D_NET *273 0.000962433
*CONN
*P A[2] I
*I *610:A I *D sky130_fd_sc_hd__buf_6
*CAP
1 A[2] 0.000481217
2 *610:A 0.000481217
3 *610:A *611:A 0
4 *610:A *620:A 0
5 *609:A *610:A 0
*RES
1 A[2] *610:A 18.4776 
*END

*D_NET *274 0.00204707
*CONN
*P A[3] I
*I *611:A I *D sky130_fd_sc_hd__buf_6
*CAP
1 A[3] 0.000826571
2 *611:A 0.000826571
3 *611:A *620:A 3.60041e-05
4 *611:A *621:A 0.000268636
5 *430:A *611:A 2.57465e-06
6 *476:B *611:A 0
7 *610:A *611:A 0
8 *13:8 *611:A 8.67149e-05
*RES
1 A[3] *611:A 25.7336 
*END

*D_NET *275 0.00071847
*CONN
*P A[4] I
*I *612:A I *D sky130_fd_sc_hd__clkbuf_2
*CAP
1 A[4] 0.000271492
2 *612:A 0.000271492
3 *612:A *613:A 0
4 *15:58 *612:A 0.000175485
*RES
1 A[4] *612:A 21.1366 
*END

*D_NET *276 0.00167174
*CONN
*P A[5] I
*I *613:A I *D sky130_fd_sc_hd__clkbuf_2
*CAP
1 A[5] 0.000628752
2 *613:A 0.000628752
3 *613:A *487:B 0
4 *613:A *622:A 0
5 *613:A *329:26 8.08156e-06
6 *613:A *329:34 0.000145323
7 *613:A *331:12 4.801e-05
8 *500:A *613:A 6.08467e-05
9 *500:CIN *613:A 0.000107496
10 *543:B *613:A 4.27003e-05
11 *612:A *613:A 0
12 *15:8 *613:A 0
13 *16:25 *613:A 1.77537e-06
*RES
1 A[5] *613:A 30.1384 
*END

*D_NET *277 0.0032152
*CONN
*P A[6] I
*I *614:A I *D sky130_fd_sc_hd__dlygate4sd2_1
*CAP
1 A[6] 0.000878387
2 *614:A 0.000878387
3 *614:A *427:A 2.04806e-05
4 *614:A *427:B 4.93146e-05
5 *614:A *487:B 8.92568e-06
6 *614:A *615:A 0.000234458
7 *614:A *623:A 2.79993e-05
8 *614:A *336:40 4.89392e-05
9 *614:A *347:10 4.19665e-06
10 *498:A *614:A 7.71886e-05
11 *499:CIN *614:A 0
12 *516:A *614:A 0.000538893
13 *516:B *614:A 0.000217951
14 *516:CIN *614:A 3.75405e-05
15 *518:B *614:A 4.43464e-05
16 *519:A *614:A 0.000122098
17 *546:B *614:A 2.60984e-05
*RES
1 A[6] *614:A 42.5932 
*END

*D_NET *278 0.00142675
*CONN
*P A[7] I
*I *615:A I *D sky130_fd_sc_hd__dlymetal6s2s_1
*CAP
1 A[7] 0.000241626
2 *615:A 0.000241626
3 *615:A *487:B 0.000379538
4 *615:A *622:A 0.000119391
5 *519:A *615:A 0.000118485
6 *543:B *615:A 2.65667e-05
7 *614:A *615:A 0.000234458
8 *16:25 *615:A 6.50586e-05
*RES
1 A[7] *615:A 25.5622 
*END

*D_NET *279 0.00121299
*CONN
*P B[0] I
*I *616:A I *D sky130_fd_sc_hd__dlygate4sd2_1
*CAP
1 B[0] 0.00055421
2 *616:A 0.00055421
3 *616:A *617:A 1.54958e-05
4 *544:B *616:A 0
5 *9:6 *616:A 8.9075e-05
*RES
1 B[0] *616:A 30.2766 
*END

*D_NET *280 0.00148419
*CONN
*P B[1] I
*I *617:A I *D sky130_fd_sc_hd__buf_2
*CAP
1 B[1] 0.000662955
2 *617:A 0.000662955
3 *617:A *465:B 0
4 *617:A *618:A 0
5 *502:A *617:A 8.9514e-05
6 *504:B *617:A 5.32652e-05
7 *525:CIN *617:A 0
8 *616:A *617:A 1.54958e-05
*RES
1 B[1] *617:A 22.8596 
*END

*D_NET *281 0.00214744
*CONN
*P B[2] I
*I *618:A I *D sky130_fd_sc_hd__buf_6
*CAP
1 B[2] 0.00099554
2 *618:A 0.00099554
3 *506:A *618:A 2.29386e-05
4 *556:A *618:A 0.000125553
5 *609:A *618:A 0
6 *617:A *618:A 0
7 *220:16 *618:A 7.86825e-06
*RES
1 B[2] *618:A 19.7779 
*END

*D_NET *282 0.00123886
*CONN
*P B[3] I
*I *619:A I *D sky130_fd_sc_hd__buf_6
*CAP
1 B[3] 0.000466391
2 *619:A 0.000466391
3 *619:A *378:B 0.000209636
4 *619:A *351:8 0
5 *556:A *619:A 3.60041e-05
6 *609:A *619:A 3.96052e-05
7 *12:12 *619:A 2.08274e-05
*RES
1 B[3] *619:A 28.4734 
*END

*D_NET *283 0.00161507
*CONN
*P B[4] I
*I *620:A I *D sky130_fd_sc_hd__buf_6
*CAP
1 B[4] 0.000789535
2 *620:A 0.000789535
3 *610:A *620:A 0
4 *611:A *620:A 3.60041e-05
5 *687:A *620:A 0
*RES
1 B[4] *620:A 34.2954 
*END

*D_NET *284 0.00121403
*CONN
*P B[5] I
*I *621:A I *D sky130_fd_sc_hd__buf_8
*CAP
1 B[5] 0.000466899
2 *621:A 0.000466899
3 *611:A *621:A 0.000268636
4 *687:A *621:A 1.15929e-05
5 *13:8 *621:A 0
*RES
1 B[5] *621:A 19.7999 
*END

*D_NET *285 0.000802978
*CONN
*P B[6] I
*I *622:A I *D sky130_fd_sc_hd__buf_6
*CAP
1 B[6] 0.000336274
2 *622:A 0.000336274
3 *622:A *487:B 8.62625e-06
4 *520:CIN *622:A 2.41274e-06
5 *613:A *622:A 0
6 *615:A *622:A 0.000119391
*RES
1 B[6] *622:A 22.8004 
*END

*D_NET *286 0.00144936
*CONN
*P B[7] I
*I *623:A I *D sky130_fd_sc_hd__buf_6
*CAP
1 B[7] 0.000473691
2 *623:A 0.000473691
3 *487:A *623:A 0.000414339
4 *518:B *623:A 8.92568e-06
5 *543:B *623:A 5.0715e-05
6 *614:A *623:A 2.79993e-05
*RES
1 B[7] *623:A 28.1442 
*END

*D_NET *287 0.000487302
*CONN
*P P[0] O
*I *624:X O *D sky130_fd_sc_hd__clkdlybuf4s50_1
*CAP
1 P[0] 0.000243651
2 *624:X 0.000243651
*RES
1 *624:X P[0] 17.9422 
*END

*D_NET *288 0.00119361
*CONN
*P P[10] O
*I *625:X O *D sky130_fd_sc_hd__buf_2
*CAP
1 P[10] 0.000584566
2 *625:X 0.000584566
3 P[10] P[9] 0
4 *625:A P[10] 2.44829e-05
*RES
1 *625:X P[10] 26.6759 
*END

*D_NET *289 0.000861359
*CONN
*P P[11] O
*I *626:X O *D sky130_fd_sc_hd__buf_2
*CAP
1 P[11] 0.000337316
2 *626:X 0.000337316
3 P[11] P[12] 0.000186726
4 P[11] *491:B1_N 0
*RES
1 *626:X P[11] 23.0782 
*END

*D_NET *290 0.000839231
*CONN
*P P[12] O
*I *627:X O *D sky130_fd_sc_hd__buf_2
*CAP
1 P[12] 0.000184637
2 *627:X 0.000184637
3 P[12] P[13] 0.000215276
4 P[12] P[14] 6.85979e-06
5 P[12] *309:10 6.1096e-05
6 P[11] P[12] 0.000186726
*RES
1 *627:X P[12] 19.1551 
*END

*D_NET *291 0.000711731
*CONN
*P P[13] O
*I *628:X O *D sky130_fd_sc_hd__buf_2
*CAP
1 P[13] 0.000153054
2 *628:X 0.000153054
3 P[13] P[14] 0.000190348
4 P[13] *309:10 0
5 P[12] P[13] 0.000215276
*RES
1 *628:X P[13] 19.7562 
*END

*D_NET *292 0.00142801
*CONN
*P P[14] O
*I *629:X O *D sky130_fd_sc_hd__buf_2
*CAP
1 P[14] 0.00060081
2 *629:X 0.00060081
3 P[12] P[14] 6.85979e-06
4 P[13] P[14] 0.000190348
5 *629:A P[14] 2.91831e-05
6 *63:40 P[14] 0
*RES
1 *629:X P[14] 28.9682 
*END

*D_NET *293 0.00103693
*CONN
*P P[15] O
*I *630:X O *D sky130_fd_sc_hd__buf_2
*CAP
1 P[15] 0.000498403
2 *630:X 0.000498403
3 *630:A P[15] 3.14978e-05
4 *253:14 P[15] 8.62625e-06
*RES
1 *630:X P[15] 22.5245 
*END

*D_NET *294 0.000706961
*CONN
*P P[1] O
*I *631:X O *D sky130_fd_sc_hd__clkdlybuf4s50_1
*CAP
1 P[1] 0.000353481
2 *631:X 0.000353481
*RES
1 *631:X P[1] 24.4519 
*END

*D_NET *295 0.00166577
*CONN
*P P[2] O
*I *632:X O *D sky130_fd_sc_hd__dlymetal6s2s_1
*CAP
1 P[2] 0.000637589
2 *632:X 0.000637589
3 P[2] *399:A 0
4 *495:B P[2] 7.08723e-06
5 *551:A P[2] 0
6 *632:A P[2] 0.000383501
7 *144:14 P[2] 0
*RES
1 *632:X P[2] 30.5947 
*END

*D_NET *296 0.00187222
*CONN
*P P[3] O
*I *633:X O *D sky130_fd_sc_hd__buf_2
*CAP
1 P[3] 0.000684611
2 *633:X 0.000684611
3 *370:C1 P[3] 3.07133e-05
4 *57:14 P[3] 7.14746e-05
5 *57:20 P[3] 7.24449e-05
6 *59:6 P[3] 0.000328363
7 *62:10 P[3] 0
*RES
1 *633:X P[3] 28.6606 
*END

*D_NET *297 0.00190553
*CONN
*P P[4] O
*I *634:X O *D sky130_fd_sc_hd__buf_2
*CAP
1 P[4] 0.000683486
2 *634:X 0.000683486
3 P[4] P[5] 0
4 *663:A P[4] 0
5 *58:12 P[4] 0
6 *59:6 P[4] 0.000538559
*RES
1 *634:X P[4] 28.6606 
*END

*D_NET *298 0.000864133
*CONN
*P P[5] O
*I *635:X O *D sky130_fd_sc_hd__buf_2
*CAP
1 P[5] 0.000405296
2 *635:X 0.000405296
3 P[4] P[5] 0
4 *374:B1 P[5] 5.35406e-05
*RES
1 *635:X P[5] 22.5656 
*END

*D_NET *299 0.00271428
*CONN
*P P[6] O
*I *636:X O *D sky130_fd_sc_hd__buf_2
*CAP
1 P[6] 0.0011867
2 *636:X 0.0011867
3 P[6] *374:A1 0
4 P[6] *374:A2 0
5 P[6] *689:A 0
6 P[6] *321:14 5.39769e-05
7 *453:B P[6] 1.43848e-05
8 *661:A P[6] 0.000171273
9 *692:A P[6] 3.61774e-05
10 *59:6 P[6] 6.50727e-05
*RES
1 *636:X P[6] 35.3158 
*END

*D_NET *300 0.000643835
*CONN
*P P[7] O
*I *637:X O *D sky130_fd_sc_hd__buf_2
*CAP
1 P[7] 0.000321918
2 *637:X 0.000321918
3 P[7] P[8] 0
4 *469:A4 P[7] 0
*RES
1 *637:X P[7] 21.4172 
*END

*D_NET *301 0.000491851
*CONN
*P P[8] O
*I *638:X O *D sky130_fd_sc_hd__buf_2
*CAP
1 P[8] 0.000245925
2 *638:X 0.000245925
3 P[8] P[9] 0
4 P[7] P[8] 0
5 *469:A4 P[8] 0
*RES
1 *638:X P[8] 19.6797 
*END

*D_NET *302 0.000378863
*CONN
*P P[9] O
*I *639:X O *D sky130_fd_sc_hd__buf_2
*CAP
1 P[9] 0.000189432
2 *639:X 0.000189432
3 P[10] P[9] 0
4 P[8] P[9] 0
*RES
1 *639:X P[9] 18.0187 
*END

*D_NET *33 0.00377336
*CONN
*I *665:A I *D sky130_fd_sc_hd__buf_4
*I *495:B I *D sky130_fd_sc_hd__fa_1
*I *555:COUT O *D sky130_fd_sc_hd__ha_1
*CAP
1 *665:A 0.000188508
2 *495:B 0.00104136
3 *555:COUT 0.000852852
4 *495:B P[2] 7.08723e-06
5 *495:B *399:A 9.49732e-05
6 *495:B *406:A 0.000139764
7 *495:B *428:A 2.16355e-05
8 *495:B *495:CIN 1.61631e-05
9 *495:B *551:A 2.48543e-05
10 *495:B *555:A 0.000163144
11 *495:B *144:14 0.00103966
12 *495:B *255:6 3.61993e-05
13 *665:A *370:A2 0.000113993
14 *665:A *495:A 0
15 *665:A *42:10 3.31733e-05
16 *665:A *145:12 0
*RES
1 *555:COUT *495:B 43.7631 
2 *495:B *665:A 22.9358 
*END

*D_NET *34 0.00310177
*CONN
*I *415:A2 I *D sky130_fd_sc_hd__a211oi_1
*I *664:A I *D sky130_fd_sc_hd__buf_4
*I *495:COUT O *D sky130_fd_sc_hd__fa_1
*CAP
1 *415:A2 0.000114781
2 *664:A 0.000174913
3 *495:COUT 0.000647575
4 *34:14 0.000937269
5 *415:A2 *371:A2 8.36586e-06
6 *415:A2 *417:A 0.000107496
7 *415:A2 *57:22 0.000202475
8 *415:A2 *58:12 0.000210841
9 *415:A2 *58:20 2.16355e-05
10 *664:A *61:12 1.82679e-05
11 *34:14 *370:A1 2.99929e-05
12 *34:14 *370:A2 0.000411775
13 *34:14 *370:B1 1.46079e-05
14 *34:14 *48:16 5.54078e-05
15 *34:14 *57:20 1.00981e-05
16 *34:14 *61:12 0.000136272
*RES
1 *495:COUT *34:14 32.4807 
2 *34:14 *664:A 12.7456 
3 *34:14 *415:A2 23.4354 
*END

*D_NET *35 0.0012876
*CONN
*I *389:B1 I *D sky130_fd_sc_hd__a21oi_2
*I *531:COUT O *D sky130_fd_sc_hd__ha_4
*CAP
1 *389:B1 0.000615722
2 *531:COUT 0.000615722
3 *389:B1 *403:A 5.04829e-06
4 *389:B1 *425:A 0
5 *389:B1 *515:CIN 0
6 *389:B1 *517:CIN 5.11107e-05
*RES
1 *531:COUT *389:B1 42.11 
*END

*D_NET *36 0.00167371
*CONN
*I *680:A I *D sky130_fd_sc_hd__buf_4
*I *381:B I *D sky130_fd_sc_hd__nand2_4
*I *389:A1 I *D sky130_fd_sc_hd__a21oi_2
*I *531:SUM O *D sky130_fd_sc_hd__ha_4
*CAP
1 *680:A 0.000187017
2 *381:B 0
3 *389:A1 0.000202401
4 *531:SUM 0.000130293
5 *36:19 0.000335904
6 *36:8 0.000481582
7 *389:A1 *389:A2 0.000140991
8 *389:A1 *88:12 0
9 *680:A *381:A 0
10 *680:A *389:A2 7.55529e-05
11 *680:A *474:B1 0
12 *36:19 *381:A 0
13 *36:19 *389:A2 0.000119973
*RES
1 *531:SUM *36:8 15.5817 
2 *36:8 *389:A1 19.7337 
3 *36:8 *36:19 4.73876 
4 *36:19 *381:B 13.7491 
5 *36:19 *680:A 18.8377 
*END

*D_NET *37 0.00201947
*CONN
*I *439:B I *D sky130_fd_sc_hd__or2_4
*I *683:A I *D sky130_fd_sc_hd__buf_4
*I *532:COUT O *D sky130_fd_sc_hd__ha_4
*CAP
1 *439:B 0.000111041
2 *683:A 9.18213e-05
3 *532:COUT 0.000153069
4 *37:8 0.000355931
5 *439:B *384:A2 0
6 *439:B *409:A2 7.64646e-05
7 *439:B *451:A2 1.03594e-05
8 *439:B *323:26 5.90171e-05
9 *683:A *409:A2 6.14128e-05
10 *683:A *441:A2 5.56367e-05
11 *683:A *55:16 2.65667e-05
12 *683:A *323:26 9.20254e-05
13 *683:A *346:16 6.92705e-05
14 *37:8 *532:A 0.00021569
15 *37:8 *532:B 2.41483e-05
16 *37:8 *358:16 0.000617019
*RES
1 *532:COUT *37:8 20.5732 
2 *37:8 *683:A 17.9655 
3 *37:8 *439:B 17.2421 
*END

*D_NET *38 0.00806471
*CONN
*I *658:A I *D sky130_fd_sc_hd__buf_4
*I *385:B1 I *D sky130_fd_sc_hd__o21a_4
*I *440:A1 I *D sky130_fd_sc_hd__o221ai_2
*I *532:SUM O *D sky130_fd_sc_hd__ha_4
*CAP
1 *658:A 0.000163969
2 *385:B1 0
3 *440:A1 0
4 *532:SUM 0.000290836
5 *38:23 0.000355245
6 *38:16 0.00104839
7 *38:8 0.0015305
8 *658:A *384:B1 0.000196836
9 *658:A *453:A 4.72872e-05
10 *658:A *692:A 0.000348369
11 *658:A *317:8 6.2437e-05
12 *38:8 *472:B 6.3657e-05
13 *38:8 *473:B1 4.44637e-05
14 *38:8 *315:16 0.000165521
15 *38:8 *358:16 8.70557e-05
16 *38:16 *391:A2 0.000876603
17 *38:16 *395:B1 6.08467e-05
18 *38:16 *440:C1 0.000216458
19 *38:16 *443:A 0.000681531
20 *38:16 *443:B 1.12605e-05
21 *38:16 *472:B 7.36804e-06
22 *38:16 *474:A2 0.000653931
23 *38:16 *481:A1 0.000127934
24 *38:16 *493:A 0.000175689
25 *38:16 *640:A 0
26 *38:16 *69:14 0.000103428
27 *38:16 *73:22 8.96342e-05
28 *38:16 *87:6 2.12616e-05
29 *38:16 *106:28 2.86353e-06
30 *38:16 *344:16 3.18622e-05
31 *38:23 *384:B1 0.000203517
32 *38:23 *391:A2 0.000152255
33 *38:23 *472:B 9.7112e-06
34 *38:23 *692:A 0.000233993
*RES
1 *532:SUM *38:8 21.1278 
2 *38:8 *38:16 41.8353 
3 *38:16 *440:A1 9.24915 
4 *38:8 *38:23 7.23027 
5 *38:23 *385:B1 13.7491 
6 *38:23 *658:A 21.468 
*END

*D_NET *39 0.00272429
*CONN
*I *393:A2 I *D sky130_fd_sc_hd__a21o_1
*I *657:A I *D sky130_fd_sc_hd__buf_4
*I *533:COUT O *D sky130_fd_sc_hd__ha_1
*CAP
1 *393:A2 0.000279951
2 *657:A 0.000230818
3 *533:COUT 0.00037078
4 *39:6 0.000881548
5 *393:A2 *392:B 0.000175396
6 *393:A2 *392:C 0.000225713
7 *393:A2 *393:A1 0.000158582
8 *393:A2 *393:B1 7.77309e-06
9 *393:A2 *394:B1 0
10 *393:A2 *445:B 0
11 *393:A2 *40:21 4.53418e-05
12 *393:A2 *44:25 6.28598e-05
13 *393:A2 *44:34 6.03391e-06
14 *657:A *392:C 2.96496e-05
15 *657:A *394:B1 0.000151494
16 *657:A *40:8 5.04829e-06
17 *657:A *91:14 1.03594e-05
18 *657:A *320:8 1.22289e-05
19 *39:6 *533:A 5.29535e-05
20 *39:6 *40:8 1.65872e-05
21 *629:A *657:A 1.17541e-06
*RES
1 *533:COUT *39:6 14.4094 
2 *39:6 *657:A 23.2989 
3 *39:6 *393:A2 29.2167 
*END

*D_NET *40 0.0021971
*CONN
*I *656:A I *D sky130_fd_sc_hd__buf_4
*I *394:A2 I *D sky130_fd_sc_hd__a31oi_2
*I *392:B I *D sky130_fd_sc_hd__nand3_1
*I *533:SUM O *D sky130_fd_sc_hd__ha_1
*CAP
1 *656:A 5.54099e-05
2 *394:A2 5.25621e-05
3 *392:B 4.76812e-05
4 *533:SUM 3.29888e-05
5 *40:21 0.000271386
6 *40:8 0.000244084
7 *392:B *44:34 0.000175396
8 *394:A2 *394:A1 6.27718e-05
9 *394:A2 *394:B1 5.20308e-05
10 *394:A2 *319:16 0.000207266
11 *656:A *394:A1 4.66492e-05
12 *656:A *394:B1 2.68139e-05
13 *656:A *77:10 1.19705e-05
14 *656:A *319:16 0.00016562
15 *40:21 *392:C 6.57892e-05
16 *40:21 *655:A 2.07803e-05
17 *40:21 *44:34 0.000346477
18 *40:21 *50:10 6.90545e-05
19 *393:A2 *392:B 0.000175396
20 *393:A2 *40:21 4.53418e-05
21 *657:A *40:8 5.04829e-06
22 *39:6 *40:8 1.65872e-05
*RES
1 *533:SUM *40:8 14.4725 
2 *40:8 *392:B 16.8269 
3 *40:8 *40:21 11.315 
4 *40:21 *394:A2 11.6364 
5 *40:21 *656:A 11.6605 
*END

*D_NET *41 0.00330221
*CONN
*I *372:B1 I *D sky130_fd_sc_hd__a21o_2
*I *370:B1 I *D sky130_fd_sc_hd__a211o_1
*I *534:COUT O *D sky130_fd_sc_hd__ha_1
*CAP
1 *372:B1 0
2 *370:B1 0.000147937
3 *534:COUT 0.000766188
4 *41:16 0.000914125
5 *370:B1 *370:A1 0.000142785
6 *370:B1 *370:A2 6.3657e-05
7 *370:B1 *370:C1 6.3657e-05
8 *41:16 *370:A1 2.74378e-05
9 *41:16 *372:A2 4.87301e-05
10 *41:16 *527:CIN 2.17699e-05
11 *41:16 *534:A 0.00011818
12 *41:16 *534:B 6.07621e-05
13 *41:16 *42:10 0.000436453
14 *41:16 *262:26 0.000466373
15 *41:16 *328:8 9.54357e-06
16 *34:14 *370:B1 1.46079e-05
*RES
1 *534:COUT *41:16 42.8805 
2 *41:16 *370:B1 22.7737 
3 *41:16 *372:B1 9.24915 
*END

*D_NET *42 0.00342433
*CONN
*I *370:A2 I *D sky130_fd_sc_hd__a211o_1
*I *372:A2 I *D sky130_fd_sc_hd__a21o_2
*I *534:SUM O *D sky130_fd_sc_hd__ha_1
*CAP
1 *370:A2 0.000253943
2 *372:A2 5.32571e-05
3 *534:SUM 0.000524389
4 *42:10 0.000831589
5 *370:A2 *370:C1 3.44843e-05
6 *370:A2 *495:A 6.72103e-06
7 *370:A2 *57:20 2.65667e-05
8 *372:A2 *328:8 0.000214341
9 *42:10 *495:A 0.000225168
10 *42:10 *527:CIN 6.27782e-05
11 *42:10 *541:A 8.33074e-05
12 *370:B1 *370:A2 6.3657e-05
13 *665:A *370:A2 0.000113993
14 *665:A *42:10 3.31733e-05
15 *34:14 *370:A2 0.000411775
16 *41:16 *372:A2 4.87301e-05
17 *41:16 *42:10 0.000436453
*RES
1 *534:SUM *42:10 32.6387 
2 *42:10 *372:A2 16.1364 
3 *42:10 *370:A2 22.4534 
*END

*D_NET *43 0.00130019
*CONN
*I *393:B1 I *D sky130_fd_sc_hd__a21o_1
*I *535:COUT O *D sky130_fd_sc_hd__ha_1
*CAP
1 *393:B1 0.000506275
2 *535:COUT 0.000506275
3 *393:B1 *393:A1 0.000191021
4 *393:B1 *535:A 2.90998e-05
5 *393:B1 *44:8 4.28856e-07
6 *393:B1 *63:18 3.92275e-05
7 *393:B1 *253:14 2.00924e-05
8 *393:A2 *393:B1 7.77309e-06
*RES
1 *535:COUT *393:B1 37.4564 
*END

*D_NET *44 0.00333409
*CONN
*I *655:A I *D sky130_fd_sc_hd__buf_4
*I *394:A1 I *D sky130_fd_sc_hd__a31oi_2
*I *392:A I *D sky130_fd_sc_hd__nand3_1
*I *393:A1 I *D sky130_fd_sc_hd__a21o_1
*I *535:SUM O *D sky130_fd_sc_hd__ha_1
*CAP
1 *655:A 0.000112139
2 *394:A1 2.28265e-05
3 *392:A 0
4 *393:A1 0.000165947
5 *535:SUM 5.73785e-05
6 *44:34 0.000313262
7 *44:25 0.000258201
8 *44:8 0.00030323
9 *393:A1 *63:18 5.58924e-05
10 *394:A1 *394:B1 0.000109421
11 *655:A *50:10 5.62332e-05
12 *655:A *75:14 0.000217158
13 *655:A *318:30 2.65667e-05
14 *44:25 *445:B 7.58217e-06
15 *44:25 *63:18 5.19205e-05
16 *44:34 *445:B 1.64943e-05
17 *44:34 *75:14 0.000488839
18 *392:B *44:34 0.000175396
19 *393:A2 *393:A1 0.000158582
20 *393:A2 *44:25 6.28598e-05
21 *393:A2 *44:34 6.03391e-06
22 *393:B1 *393:A1 0.000191021
23 *393:B1 *44:8 4.28856e-07
24 *394:A2 *394:A1 6.27718e-05
25 *656:A *394:A1 4.66492e-05
26 *40:21 *655:A 2.07803e-05
27 *40:21 *44:34 0.000346477
*RES
1 *535:SUM *44:8 14.4725 
2 *44:8 *393:A1 19.4239 
3 *44:8 *44:25 2.6625 
4 *44:25 *392:A 13.7491 
5 *44:25 *44:34 9.72179 
6 *44:34 *394:A1 15.0271 
7 *44:34 *655:A 18.3808 
*END

*D_NET *45 0.00534782
*CONN
*I *389:A2 I *D sky130_fd_sc_hd__a21oi_2
*I *647:A I *D sky130_fd_sc_hd__buf_4
*I *536:COUT O *D sky130_fd_sc_hd__ha_4
*CAP
1 *389:A2 0.000387313
2 *647:A 8.91009e-05
3 *536:COUT 0.00142177
4 *45:14 0.00189818
5 *389:A2 *381:A 0
6 *389:A2 *474:B1 3.31733e-05
7 *389:A2 *538:A 0.000122518
8 *389:A2 *88:12 0.000400527
9 *389:A2 *343:10 6.21908e-05
10 *647:A *303:22 0
11 *45:14 *536:B 0.000357395
12 *45:14 *539:B 0.000174074
13 *45:14 *641:A 6.50586e-05
14 *389:A1 *389:A2 0.000140991
15 *680:A *389:A2 7.55529e-05
16 *36:19 *389:A2 0.000119973
*RES
1 *536:COUT *45:14 45.9305 
2 *45:14 *647:A 11.1059 
3 *45:14 *389:A2 35.4455 
*END

*D_NET *46 0.00276435
*CONN
*I *641:A I *D sky130_fd_sc_hd__buf_4
*I *381:A I *D sky130_fd_sc_hd__nand2_4
*I *536:SUM O *D sky130_fd_sc_hd__ha_4
*CAP
1 *641:A 2.19858e-05
2 *381:A 0.000267973
3 *536:SUM 0.000872311
4 *46:18 0.00116227
5 *381:A *304:14 3.31733e-05
6 *381:A *343:10 0
7 *46:18 *51:6 0.000224153
8 *46:18 *304:14 0.000117421
9 *46:18 *343:10 0
10 *389:A2 *381:A 0
11 *680:A *381:A 0
12 *36:19 *381:A 0
13 *45:14 *641:A 6.50586e-05
*RES
1 *536:SUM *46:18 29.8615 
2 *46:18 *381:A 20.5642 
3 *46:18 *641:A 14.4725 
*END

*D_NET *47 0.00696521
*CONN
*I *439:A I *D sky130_fd_sc_hd__or2_4
*I *654:A I *D sky130_fd_sc_hd__buf_6
*I *694:A I *D sky130_fd_sc_hd__buf_4
*I *537:COUT O *D sky130_fd_sc_hd__ha_4
*CAP
1 *439:A 2.12792e-05
2 *654:A 0.00049512
3 *694:A 0
4 *537:COUT 0.0013265
5 *47:16 0.000804293
6 *47:6 0.00165696
7 *654:A *384:B1 0.000163344
8 *654:A *385:A1 4.65954e-06
9 *654:A *385:A2 0.000328703
10 *654:A *418:A1 4.58907e-05
11 *654:A *418:B1 0
12 *654:A *677:A 0
13 *654:A *689:A 0
14 *654:A *317:8 0.000397981
15 *654:A *321:14 0
16 *654:A *357:6 3.95516e-05
17 *47:6 *384:A2 4.40942e-05
18 *47:6 *484:A1 0.000398186
19 *47:6 *484:A2 0.000230654
20 *47:6 *537:A 0.000210531
21 *47:6 *537:B 1.4106e-05
22 *47:6 *48:16 1.99195e-05
23 *47:16 *384:A2 4.40942e-05
24 *47:16 *385:A2 6.20146e-05
25 *47:16 *451:A1 3.20264e-05
26 *47:16 *451:A2 4.0508e-05
27 *47:16 *659:A 3.00174e-06
28 *47:16 *59:19 0.0001195
29 *47:16 *323:26 2.58616e-05
30 *47:16 *353:10 0.000260896
31 *47:16 *357:6 0.000166091
32 *635:A *47:6 9.44631e-06
*RES
1 *537:COUT *47:6 39.9211 
2 *47:6 *47:16 19.2099 
3 *47:16 *694:A 9.24915 
4 *47:16 *654:A 34.2939 
5 *47:6 *439:A 9.82786 
*END

*D_NET *48 0.00437481
*CONN
*I *653:A I *D sky130_fd_sc_hd__buf_6
*I *416:B1 I *D sky130_fd_sc_hd__o21ai_2
*I *537:SUM O *D sky130_fd_sc_hd__ha_4
*CAP
1 *653:A 0.000235329
2 *416:B1 0
3 *537:SUM 0.000817423
4 *48:16 0.00105275
5 *653:A *416:A2 5.28621e-05
6 *653:A *59:6 0.00093343
7 *653:A *324:8 4.58003e-05
8 *48:16 *370:A1 0
9 *48:16 *416:A2 0.00056613
10 *48:16 *57:20 0.000153949
11 *48:16 *59:6 0.000114113
12 *48:16 *62:10 0
13 *633:A *48:16 0.000113968
14 *634:A *653:A 0.000213725
15 *34:14 *48:16 5.54078e-05
16 *47:6 *48:16 1.99195e-05
*RES
1 *537:SUM *48:16 41.3644 
2 *48:16 *416:B1 9.24915 
3 *48:16 *653:A 20.5582 
*END

*D_NET *49 0.00283753
*CONN
*I *646:A I *D sky130_fd_sc_hd__buf_4
*I *394:A3 I *D sky130_fd_sc_hd__a31oi_2
*I *538:COUT O *D sky130_fd_sc_hd__ha_1
*CAP
1 *646:A 0
2 *394:A3 7.31951e-05
3 *538:COUT 0.000681339
4 *49:10 0.000754534
5 *394:A3 *91:14 8.71344e-05
6 *394:A3 *105:10 0.000198752
7 *49:10 *395:A1 0.00011818
8 *49:10 *444:A2 2.16355e-05
9 *49:10 *478:A 2.65831e-05
10 *49:10 *478:B 1.82679e-05
11 *49:10 *538:A 0.000113968
12 *49:10 *538:B 0.000167076
13 *49:10 *50:10 7.30704e-05
14 *49:10 *72:8 1.0758e-05
15 *49:10 *75:14 1.92336e-05
16 *49:10 *91:14 2.04661e-05
17 *49:10 *104:14 6.50586e-05
18 *49:10 *105:10 0.000214073
19 *627:A *49:10 0.000174205
*RES
1 *538:COUT *49:10 32.2459 
2 *49:10 *394:A3 17.2421 
3 *49:10 *646:A 13.7491 
*END

*D_NET *50 0.00336471
*CONN
*I *479:A I *D sky130_fd_sc_hd__inv_1
*I *392:C I *D sky130_fd_sc_hd__nand3_1
*I *538:SUM O *D sky130_fd_sc_hd__ha_1
*CAP
1 *479:A 0.000163755
2 *392:C 0.000192448
3 *538:SUM 0.000675319
4 *50:10 0.00103152
5 *392:C *394:B1 0
6 *392:C *320:8 5.23435e-05
7 *479:A *91:14 0.000107496
8 *479:A *105:10 3.94472e-05
9 *50:10 *395:A1 1.19856e-05
10 *50:10 *444:A2 2.65667e-05
11 *50:10 *478:A 5.04829e-06
12 *50:10 *75:14 4.0752e-05
13 *50:10 *318:30 2.99929e-05
14 *50:10 *320:8 0.000468527
15 *393:A2 *392:C 0.000225713
16 *655:A *50:10 5.62332e-05
17 *657:A *392:C 2.96496e-05
18 *40:21 *392:C 6.57892e-05
19 *40:21 *50:10 6.90545e-05
20 *49:10 *50:10 7.30704e-05
*RES
1 *538:SUM *50:10 29.6038 
2 *50:10 *392:C 20.5642 
3 *50:10 *479:A 17.5892 
*END

*D_NET *51 0.00193732
*CONN
*I *645:A I *D sky130_fd_sc_hd__buf_4
*I *441:B1 I *D sky130_fd_sc_hd__a21oi_1
*I *539:COUT O *D sky130_fd_sc_hd__ha_4
*CAP
1 *645:A 0.000111611
2 *441:B1 4.51619e-05
3 *539:COUT 0.000482852
4 *51:6 0.000639624
5 *441:B1 *474:B1 2.16355e-05
6 *441:B1 *52:14 1.43832e-05
7 *645:A *441:A2 5.35029e-05
8 *645:A *474:B1 5.37077e-05
9 *645:A *88:12 3.20407e-05
10 *645:A *304:14 2.58616e-05
11 *645:A *308:14 6.27718e-05
12 *645:A *344:16 6.57318e-05
13 *51:6 *474:B1 2.16355e-05
14 *51:6 *52:6 7.25699e-05
15 *51:6 *52:14 1.00766e-05
16 *46:18 *51:6 0.000224153
*RES
1 *539:COUT *51:6 22.7284 
2 *51:6 *441:B1 10.5513 
3 *51:6 *645:A 22.4655 
*END

*D_NET *52 0.00191537
*CONN
*I *441:A1 I *D sky130_fd_sc_hd__a21oi_1
*I *382:B I *D sky130_fd_sc_hd__nand2_1
*I *644:A I *D sky130_fd_sc_hd__buf_4
*I *539:SUM O *D sky130_fd_sc_hd__ha_4
*CAP
1 *441:A1 0
2 *382:B 0
3 *644:A 0.00015867
4 *539:SUM 0.000221669
5 *52:14 0.000416477
6 *52:6 0.000479476
7 *644:A *382:A 5.74776e-05
8 *644:A *388:B 3.54435e-05
9 *644:A *390:B1 0.000143295
10 *644:A *303:22 2.18698e-05
11 *644:A *304:14 1.88422e-05
12 *644:A *307:18 0.000109427
13 *644:A *308:14 6.27718e-05
14 *52:14 *382:A 6.64392e-05
15 *52:14 *474:B1 2.64785e-05
16 *441:B1 *52:14 1.43832e-05
17 *51:6 *52:6 7.25699e-05
18 *51:6 *52:14 1.00766e-05
*RES
1 *539:SUM *52:6 12.7456 
2 *52:6 *52:14 5.37724 
3 *52:14 *644:A 23.99 
4 *52:14 *382:B 9.24915 
5 *52:6 *441:A1 9.24915 
*END

*D_NET *53 0.00605532
*CONN
*I *415:C1 I *D sky130_fd_sc_hd__a211oi_1
*I *416:A2 I *D sky130_fd_sc_hd__o21ai_2
*I *660:A I *D sky130_fd_sc_hd__buf_4
*I *540:COUT O *D sky130_fd_sc_hd__ha_4
*CAP
1 *415:C1 0
2 *416:A2 0.000648638
3 *660:A 0.000293897
4 *540:COUT 0
5 *53:25 0.000926124
6 *53:6 0.000571383
7 *416:A2 *371:A2 1.03594e-05
8 *416:A2 *57:22 0.00032914
9 *416:A2 *326:12 0.000325796
10 *660:A *373:C1 2.22923e-05
11 *660:A *697:A 0.000370827
12 *660:A *55:6 0.00106695
13 *660:A *56:6 0.000139796
14 *660:A *62:10 9.60366e-05
15 *660:A *360:10 2.16355e-05
16 *53:25 *373:C1 6.46454e-05
17 *53:25 *417:A 6.08467e-05
18 *53:25 *62:10 0.000420663
19 *53:25 *326:12 6.73023e-05
20 *653:A *416:A2 5.28621e-05
21 *48:16 *416:A2 0.00056613
*RES
1 *540:COUT *53:6 13.7491 
2 *53:6 *660:A 27.9753 
3 *53:6 *53:25 13.9781 
4 *53:25 *416:A2 33.7102 
5 *53:25 *415:C1 9.24915 
*END

*D_NET *54 0.00339166
*CONN
*I *416:A1 I *D sky130_fd_sc_hd__o21ai_2
*I *697:A I *D sky130_fd_sc_hd__buf_6
*I *371:B1 I *D sky130_fd_sc_hd__o21a_4
*I *540:SUM O *D sky130_fd_sc_hd__ha_4
*CAP
1 *416:A1 0.000406973
2 *697:A 5.97625e-05
3 *371:B1 0.000256906
4 *540:SUM 0.000113015
5 *54:10 0.000485347
6 *54:8 0.000688666
7 *371:B1 *371:A1 0
8 *371:B1 *485:C1 9.69716e-06
9 *371:B1 *486:A 7.58884e-05
10 *371:B1 *323:12 0.000174205
11 *416:A1 *417:B 0
12 *416:A1 *485:C1 8.45196e-05
13 *416:A1 *486:A 5.90729e-05
14 *416:A1 *486:B 0
15 *416:A1 *695:A 0.000118002
16 *416:A1 *358:16 0.000124086
17 *697:A *56:6 0.000154172
18 *54:8 *532:A 2.75805e-05
19 *54:8 *358:16 6.08467e-05
20 *54:10 *371:A1 0
21 *54:10 *486:A 9.25196e-05
22 *54:10 *358:16 2.95757e-05
23 *660:A *697:A 0.000370827
*RES
1 *540:SUM *54:8 15.5817 
2 *54:8 *54:10 4.32351 
3 *54:10 *371:B1 21.2876 
4 *54:10 *697:A 17.8002 
5 *54:8 *416:A1 25.9624 
*END

*D_NET *55 0.00840897
*CONN
*I *441:A2 I *D sky130_fd_sc_hd__a21oi_1
*I *652:A I *D sky130_fd_sc_hd__buf_4
*I *386:B1 I *D sky130_fd_sc_hd__a21oi_1
*I *541:COUT O *D sky130_fd_sc_hd__ha_4
*CAP
1 *441:A2 0.000344125
2 *652:A 0
3 *386:B1 0.000106747
4 *541:COUT 0.00192165
5 *55:16 0.000644746
6 *55:6 0.00280377
7 *386:B1 *56:10 0.000111802
8 *386:B1 *69:14 5.04829e-06
9 *386:B1 *346:38 0.000132206
10 *441:A2 *409:A2 0.000284485
11 *441:A2 *474:B1 7.73683e-05
12 *441:A2 *323:26 5.69068e-05
13 *441:A2 *343:10 0.000111164
14 *441:A2 *343:35 2.6158e-05
15 *55:6 *541:A 1.43848e-05
16 *55:6 *541:B 0.000177133
17 *55:6 *56:6 0.000129848
18 *55:6 *166:8 1.92926e-05
19 *55:16 *386:A1 6.61829e-06
20 *55:16 *472:B 0
21 *55:16 *640:A 7.40952e-05
22 *55:16 *56:6 3.99086e-06
23 *55:16 *56:10 4.12777e-05
24 *55:16 *303:22 2.74378e-05
25 *55:16 *315:16 4.99147e-05
26 *55:16 *346:16 2.81103e-05
27 *55:16 *346:26 8.03393e-06
28 *645:A *441:A2 5.35029e-05
29 *660:A *55:6 0.00106695
30 *683:A *441:A2 5.56367e-05
31 *683:A *55:16 2.65667e-05
*RES
1 *541:COUT *55:6 39.9211 
2 *55:6 *55:16 18.1035 
3 *55:16 *386:B1 12.7938 
4 *55:16 *652:A 9.24915 
5 *55:6 *441:A2 29.6319 
*END

*D_NET *56 0.00577064
*CONN
*I *382:A I *D sky130_fd_sc_hd__nand2_1
*I *386:A1 I *D sky130_fd_sc_hd__a21oi_1
*I *651:A I *D sky130_fd_sc_hd__buf_4
*I *541:SUM O *D sky130_fd_sc_hd__ha_4
*CAP
1 *382:A 0.000325805
2 *386:A1 3.93336e-05
3 *651:A 0.000162701
4 *541:SUM 0.00103921
5 *56:10 0.000445131
6 *56:6 0.00160811
7 *382:A *474:B1 1.41181e-05
8 *382:A *303:22 0
9 *382:A *308:14 0
10 *382:A *323:26 8.89497e-06
11 *382:A *344:16 0.000336928
12 *382:A *346:16 0.000148144
13 *386:A1 *472:B 6.79599e-05
14 *386:A1 *346:26 1.64983e-05
15 *651:A *472:B 0.000101133
16 *651:A *474:A2 2.29941e-05
17 *651:A *307:18 1.17247e-06
18 *651:A *314:10 0.000109427
19 *651:A *343:35 4.24629e-05
20 *651:A *346:26 5.94075e-05
21 *56:6 *346:16 0.000213725
22 *56:6 *360:10 6.08467e-05
23 *56:10 *640:A 1.65872e-05
24 *56:10 *303:22 0.000218638
25 *386:B1 *56:10 0.000111802
26 *644:A *382:A 5.74776e-05
27 *660:A *56:6 0.000139796
28 *697:A *56:6 0.000154172
29 *52:14 *382:A 6.64392e-05
30 *55:6 *56:6 0.000129848
31 *55:16 *386:A1 6.61829e-06
32 *55:16 *56:6 3.99086e-06
33 *55:16 *56:10 4.12777e-05
*RES
1 *541:SUM *56:6 33.2659 
2 *56:6 *56:10 10.7694 
3 *56:10 *651:A 18.8377 
4 *56:10 *386:A1 15.1659 
5 *56:6 *382:A 28.6943 
*END

*D_NET *57 0.00716403
*CONN
*I *370:C1 I *D sky130_fd_sc_hd__a211o_1
*I *663:A I *D sky130_fd_sc_hd__buf_4
*I *415:B1 I *D sky130_fd_sc_hd__a211oi_1
*I *371:A2 I *D sky130_fd_sc_hd__o21a_4
*I *542:COUT O *D sky130_fd_sc_hd__ha_4
*CAP
1 *370:C1 6.22266e-05
2 *663:A 0.000281361
3 *415:B1 0
4 *371:A2 0.000697637
5 *542:COUT 0.00024298
6 *57:22 0.000863973
7 *57:20 0.000587554
8 *57:14 0.000445064
9 *370:C1 P[3] 3.07133e-05
10 *371:A2 *371:A1 0.000164181
11 *371:A2 *373:B1 6.14436e-05
12 *371:A2 *373:C1 0.000728883
13 *371:A2 *485:A2 0.000491721
14 *371:A2 *539:A 9.42583e-05
15 *371:A2 *58:12 1.94615e-05
16 *371:A2 *61:12 3.96535e-05
17 *371:A2 *326:12 6.07538e-05
18 *371:A2 *360:10 7.44794e-06
19 *663:A P[4] 0
20 *663:A *374:B1 6.49003e-05
21 *663:A *58:12 4.52469e-05
22 *663:A *326:12 0.000449723
23 *57:14 P[3] 7.14746e-05
24 *57:14 *542:A 8.82765e-05
25 *57:14 *62:10 0
26 *57:20 P[3] 7.24449e-05
27 *57:20 *59:6 0.000481241
28 *57:22 *58:12 8.04463e-05
29 *57:22 *326:12 2.68066e-05
30 *370:A2 *370:C1 3.44843e-05
31 *370:A2 *57:20 2.65667e-05
32 *370:B1 *370:C1 6.3657e-05
33 *415:A2 *371:A2 8.36586e-06
34 *415:A2 *57:22 0.000202475
35 *416:A2 *371:A2 1.03594e-05
36 *416:A2 *57:22 0.00032914
37 *633:A *57:20 6.50586e-05
38 *34:14 *57:20 1.00981e-05
39 *48:16 *57:20 0.000153949
*RES
1 *542:COUT *57:14 23.0471 
2 *57:14 *57:20 12.0568 
3 *57:20 *57:22 7.23027 
4 *57:22 *371:A2 38.2117 
5 *57:22 *415:B1 13.7491 
6 *57:20 *663:A 22.957 
7 *57:14 *370:C1 11.6605 
*END

*D_NET *58 0.00384287
*CONN
*I *415:A1 I *D sky130_fd_sc_hd__a211oi_1
*I *662:A I *D sky130_fd_sc_hd__buf_6
*I *371:A1 I *D sky130_fd_sc_hd__o21a_4
*I *542:SUM O *D sky130_fd_sc_hd__ha_4
*CAP
1 *415:A1 0
2 *662:A 0
3 *371:A1 0.00061121
4 *542:SUM 0.000348717
5 *58:20 0.000990292
6 *58:12 0.000727799
7 *371:A1 *373:A1 0
8 *371:A1 *532:B 0.000127447
9 *371:A1 *539:A 1.43832e-05
10 *371:A1 *323:12 0
11 *371:A1 *358:16 0
12 *58:12 P[4] 0
13 *58:12 *369:A 8.18738e-05
14 *58:12 *369:B 8.92568e-06
15 *58:12 *374:B1 0.000113968
16 *58:12 *484:A2 2.44579e-05
17 *58:12 *61:12 0.000185159
18 *58:20 *417:A 5.17311e-05
19 *58:20 *417:B 1.50924e-05
20 *371:A2 *371:A1 0.000164181
21 *371:A2 *58:12 1.94615e-05
22 *371:B1 *371:A1 0
23 *415:A2 *58:12 0.000210841
24 *415:A2 *58:20 2.16355e-05
25 *663:A *58:12 4.52469e-05
26 *54:10 *371:A1 0
27 *57:22 *58:12 8.04463e-05
*RES
1 *542:SUM *58:12 29.6642 
2 *58:12 *58:20 10.9765 
3 *58:20 *371:A1 29.0408 
4 *58:20 *662:A 13.7491 
5 *58:12 *415:A1 9.24915 
*END

*D_NET *59 0.0061413
*CONN
*I *384:A1 I *D sky130_fd_sc_hd__a211o_1
*I *451:A1 I *D sky130_fd_sc_hd__a211oi_2
*I *661:A I *D sky130_fd_sc_hd__buf_4
*I *370:X O *D sky130_fd_sc_hd__a211o_1
*CAP
1 *384:A1 0.000386845
2 *451:A1 2.90028e-05
3 *661:A 7.89181e-05
4 *370:X 0.000623276
5 *59:19 0.000810753
6 *59:6 0.0010971
7 *384:A1 *384:B1 2.57986e-05
8 *384:A1 *384:C1 9.94165e-05
9 *384:A1 *92:8 1.75951e-05
10 *384:A1 *323:26 3.60193e-05
11 *451:A1 *384:A2 7.86825e-06
12 *451:A1 *451:A2 8.36429e-06
13 *661:A P[6] 0.000171273
14 *661:A *324:8 2.41274e-06
15 *59:6 P[3] 0.000328363
16 *59:6 P[4] 0.000538559
17 *59:6 P[6] 6.50727e-05
18 *59:6 *324:8 6.20449e-05
19 *59:19 *374:A2 0
20 *59:19 *418:B1 0
21 *59:19 *659:A 5.30741e-05
22 *59:19 *689:A 0
23 *59:19 *353:10 0
24 *633:A *59:6 1.92336e-05
25 *653:A *59:6 0.00093343
26 *47:16 *451:A1 3.20264e-05
27 *47:16 *59:19 0.0001195
28 *48:16 *59:6 0.000114113
29 *57:20 *59:6 0.000481241
*RES
1 *370:X *59:6 33.2659 
2 *59:6 *661:A 12.0704 
3 *59:6 *59:19 14.2218 
4 *59:19 *451:A1 14.7506 
5 *59:19 *384:A1 20.4526 
*END

*D_NET *60 0.00524932
*CONN
*I *696:A I *D sky130_fd_sc_hd__buf_4
*I *659:A I *D sky130_fd_sc_hd__buf_6
*I *384:A2 I *D sky130_fd_sc_hd__a211o_1
*I *371:X O *D sky130_fd_sc_hd__o21a_4
*CAP
1 *696:A 0
2 *659:A 0.000211444
3 *384:A2 0.000730263
4 *371:X 0.000433384
5 *60:37 0.00042114
6 *60:8 0.00137334
7 *384:A2 *384:B1 3.5534e-06
8 *384:A2 *418:A1 1.94614e-05
9 *384:A2 *440:B1 0
10 *384:A2 *451:C1 0.000165521
11 *384:A2 *86:6 0.000301947
12 *384:A2 *315:26 6.67435e-06
13 *384:A2 *323:26 0.000209636
14 *659:A *374:A2 5.50522e-06
15 *659:A *409:A2 4.91625e-05
16 *659:A *410:A2 0.000269633
17 *60:8 *409:A1 0.000258939
18 *60:8 *485:C1 0
19 *60:8 *343:10 8.61152e-06
20 *60:8 *343:35 1.16107e-05
21 *60:37 *409:A1 9.01323e-05
22 *60:37 *451:A2 6.77815e-05
23 *60:37 *353:10 0.000352567
24 *439:B *384:A2 0
25 *451:A1 *384:A2 7.86825e-06
26 *635:A *60:8 1.37421e-05
27 *635:A *60:37 9.3134e-05
28 *47:6 *384:A2 4.40942e-05
29 *47:16 *384:A2 4.40942e-05
30 *47:16 *659:A 3.00174e-06
31 *59:19 *659:A 5.30741e-05
*RES
1 *371:X *60:8 25.9624 
2 *60:8 *384:A2 38.6368 
3 *60:8 *60:37 12.4593 
4 *60:37 *659:A 25.0992 
5 *60:37 *696:A 9.24915 
*END

*D_NET *61 0.0036759
*CONN
*I *373:A2 I *D sky130_fd_sc_hd__a211oi_4
*I *372:X O *D sky130_fd_sc_hd__a21o_2
*CAP
1 *373:A2 0
2 *372:X 0.00108839
3 *61:12 0.00108839
4 *61:12 *370:A1 1.17541e-06
5 *61:12 *373:A1 0.00031945
6 *61:12 *373:B1 0.000168186
7 *61:12 *484:A2 0.000294944
8 *61:12 *485:A2 0.000141041
9 *61:12 *325:17 1.22289e-05
10 *61:12 *360:10 0.000182746
11 *371:A2 *61:12 3.96535e-05
12 *664:A *61:12 1.82679e-05
13 *34:14 *61:12 0.000136272
14 *58:12 *61:12 0.000185159
*RES
1 *372:X *61:12 46.1489 
2 *61:12 *373:A2 9.24915 
*END

*D_NET *62 0.00472396
*CONN
*I *374:B1 I *D sky130_fd_sc_hd__a21oi_2
*I *373:Y O *D sky130_fd_sc_hd__a211oi_4
*CAP
1 *374:B1 0.000608219
2 *373:Y 0.000971388
3 *62:10 0.00157961
4 *374:B1 P[5] 5.35406e-05
5 *374:B1 *486:B 2.61012e-05
6 *374:B1 *326:12 0.000483474
7 *62:10 P[3] 0
8 *62:10 *370:A1 0
9 *62:10 *373:C1 0
10 *62:10 *541:B 0
11 *62:10 *553:A 0.000126335
12 *62:10 *259:14 0
13 *62:10 *326:12 0.000136561
14 *635:A *374:B1 4.31703e-05
15 *660:A *62:10 9.60366e-05
16 *663:A *374:B1 6.49003e-05
17 *48:16 *62:10 0
18 *53:25 *62:10 0.000420663
19 *57:14 *62:10 0
20 *58:12 *374:B1 0.000113968
*RES
1 *373:Y *62:10 44.9963 
2 *62:10 *374:B1 25.5256 
*END

*D_NET *63 0.0060391
*CONN
*I *650:A I *D sky130_fd_sc_hd__buf_4
*I *444:C1 I *D sky130_fd_sc_hd__a221oi_4
*I *380:Y O *D sky130_fd_sc_hd__inv_1
*CAP
1 *650:A 0
2 *444:C1 0
3 *380:Y 0.000532647
4 *63:40 0.00115285
5 *63:18 0.0016855
6 *63:18 *380:A 5.93083e-05
7 *63:18 *396:A 0.000122378
8 *63:18 *445:B 0.00034713
9 *63:18 *533:B 2.41274e-06
10 *63:18 *75:14 1.43983e-05
11 *63:40 P[14] 0
12 *63:40 *394:B1 0
13 *63:40 *396:A 0.000148888
14 *63:40 *396:B 0.000215587
15 *63:40 *444:A2 5.24475e-05
16 *63:40 *480:B1 0.000398438
17 *63:40 *491:B1_N 4.3116e-06
18 *63:40 *492:B 9.13603e-05
19 *63:40 *494:B 8.36586e-06
20 *63:40 *91:14 0.000203756
21 *63:40 *105:10 2.60879e-06
22 *63:40 *309:10 4.03798e-05
23 *63:40 *319:16 0.000339768
24 *393:A1 *63:18 5.58924e-05
25 *393:B1 *63:18 3.92275e-05
26 *626:A *63:40 5.04829e-06
27 *629:A *63:40 0
28 *21:22 *63:40 0.000464475
29 *44:25 *63:18 5.19205e-05
*RES
1 *380:Y *63:18 33.9151 
2 *63:18 *63:40 47.3253 
3 *63:40 *444:C1 9.24915 
4 *63:18 *650:A 9.24915 
*END

*D_NET *64 0.00333363
*CONN
*I *383:B I *D sky130_fd_sc_hd__nor2_2
*I *442:A2 I *D sky130_fd_sc_hd__o21a_1
*I *381:Y O *D sky130_fd_sc_hd__nand2_4
*CAP
1 *383:B 0.00018312
2 *442:A2 0.000245158
3 *381:Y 0.000308617
4 *64:8 0.000736894
5 *383:B *383:A 1.07248e-05
6 *383:B *390:B1 5.68831e-05
7 *383:B *444:A1 7.6767e-05
8 *383:B *89:14 0.000231913
9 *383:B *344:16 0.000172247
10 *442:A2 *442:B1 1.90191e-05
11 *442:A2 *444:A1 0.000634973
12 *442:A2 *88:12 1.32509e-05
13 *442:A2 *89:14 0.000633723
14 *64:8 *444:A1 1.03403e-05
*RES
1 *381:Y *64:8 17.8002 
2 *64:8 *442:A2 25.9624 
3 *64:8 *383:B 21.8099 
*END

*D_NET *65 0.000215806
*CONN
*I *383:A I *D sky130_fd_sc_hd__nor2_2
*I *382:Y O *D sky130_fd_sc_hd__nand2_1
*CAP
1 *383:A 5.62413e-05
2 *382:Y 5.62413e-05
3 *383:A *390:B1 5.80341e-05
4 *383:A *344:16 3.45648e-05
5 *383:B *383:A 1.07248e-05
*RES
1 *382:Y *383:A 29.7455 
*END

*D_NET *66 0.00429861
*CONN
*I *640:A I *D sky130_fd_sc_hd__buf_4
*I *440:C1 I *D sky130_fd_sc_hd__o221ai_2
*I *383:Y O *D sky130_fd_sc_hd__nor2_2
*CAP
1 *640:A 0.000497784
2 *440:C1 0.000503139
3 *383:Y 0.000176472
4 *66:8 0.0011774
5 *440:C1 *390:B1 1.30557e-05
6 *440:C1 *440:B2 0.000361944
7 *440:C1 *443:A 0
8 *440:C1 *443:B 0
9 *440:C1 *444:B2 0.000267484
10 *440:C1 *87:6 2.99287e-05
11 *440:C1 *87:29 0
12 *640:A *390:B1 1.23612e-05
13 *640:A *443:B 0
14 *640:A *444:B2 2.75449e-05
15 *640:A *303:22 0.000760906
16 *640:A *307:18 3.24397e-05
17 *640:A *315:16 3.39219e-05
18 *640:A *346:26 3.62444e-05
19 *66:8 *444:B2 6.08467e-05
20 *38:16 *440:C1 0.000216458
21 *38:16 *640:A 0
22 *55:16 *640:A 7.40952e-05
23 *56:10 *640:A 1.65872e-05
*RES
1 *383:Y *66:8 17.2456 
2 *66:8 *440:C1 28.7649 
3 *66:8 *640:A 29.8713 
*END

*D_NET *67 0.00644176
*CONN
*I *692:A I *D sky130_fd_sc_hd__buf_4
*I *391:A2 I *D sky130_fd_sc_hd__a31oi_2
*I *384:X O *D sky130_fd_sc_hd__a211o_1
*CAP
1 *692:A 0.000638111
2 *391:A2 0.000485476
3 *384:X 7.76017e-05
4 *67:8 0.00120119
5 *391:A2 *69:14 0.000642071
6 *391:A2 *73:22 0.000158371
7 *391:A2 *74:12 0.000160617
8 *391:A2 *79:14 0.000115829
9 *391:A2 *303:22 1.65872e-05
10 *391:A2 *358:16 9.47181e-05
11 *692:A P[6] 3.61774e-05
12 *692:A *411:B1 3.99086e-06
13 *692:A *418:B1 0.0001195
14 *692:A *420:B 1.00846e-05
15 *692:A *453:A 8.62625e-06
16 *692:A *453:B 7.92347e-05
17 *692:A *454:A 0.000160617
18 *692:A *649:A 0.00011818
19 *692:A *79:14 0.000186621
20 *692:A *317:8 9.75356e-05
21 *67:8 *92:8 0.000109427
22 *636:A *692:A 0.000309978
23 *658:A *692:A 0.000348369
24 *38:16 *391:A2 0.000876603
25 *38:23 *391:A2 0.000152255
26 *38:23 *692:A 0.000233993
*RES
1 *384:X *67:8 15.0271 
2 *67:8 *391:A2 35.5483 
3 *67:8 *692:A 44.8896 
*END

*D_NET *68 0.00361891
*CONN
*I *452:A1 I *D sky130_fd_sc_hd__o21ai_2
*I *391:A3 I *D sky130_fd_sc_hd__a31oi_2
*I *648:A I *D sky130_fd_sc_hd__buf_6
*I *385:X O *D sky130_fd_sc_hd__o21a_4
*CAP
1 *452:A1 0
2 *391:A3 0.000321049
3 *648:A 0.000113716
4 *385:X 0.000100723
5 *68:17 0.000589226
6 *68:6 0.000482615
7 *391:A3 *455:B 5.35029e-05
8 *391:A3 *466:A 0.000159834
9 *391:A3 *466:C 3.74672e-05
10 *391:A3 *468:B 0.000107643
11 *391:A3 *471:A 0.000244627
12 *391:A3 *471:B_N 0.000134976
13 *391:A3 *314:37 6.14128e-05
14 *391:A3 *315:34 0.000189628
15 *648:A *411:A1 0.000159016
16 *68:17 *419:B 0
17 *68:17 *420:B 0.00053457
18 *68:17 *314:37 1.1246e-05
19 *68:17 *315:34 0.000172743
20 *68:17 *346:38 1.90395e-05
21 *625:A *391:A3 0.000125876
*RES
1 *385:X *68:6 11.0817 
2 *68:6 *648:A 12.191 
3 *68:6 *68:17 14.637 
4 *68:17 *391:A3 26.7929 
5 *68:17 *452:A1 13.7491 
*END

*D_NET *69 0.00454515
*CONN
*I *390:A2 I *D sky130_fd_sc_hd__o211ai_1
*I *386:Y O *D sky130_fd_sc_hd__a21oi_1
*CAP
1 *390:A2 0
2 *386:Y 0.00101819
3 *69:14 0.00101819
4 *69:14 *387:C 6.2502e-05
5 *69:14 *493:A 0.000177787
6 *69:14 *70:18 0.000813399
7 *69:14 *73:22 0.000524814
8 *69:14 *79:14 9.60366e-05
9 *69:14 *304:34 2.02993e-05
10 *69:14 *308:29 0
11 *69:14 *343:35 5.91586e-05
12 *69:14 *346:38 4.2273e-06
13 *386:B1 *69:14 5.04829e-06
14 *391:A2 *69:14 0.000642071
15 *38:16 *69:14 0.000103428
*RES
1 *386:Y *69:14 47.1454 
2 *69:14 *390:A2 9.24915 
*END

*D_NET *70 0.0032086
*CONN
*I *390:A1 I *D sky130_fd_sc_hd__o211ai_1
*I *387:Y O *D sky130_fd_sc_hd__nand3_1
*CAP
1 *390:A1 0
2 *387:Y 0.000643349
3 *70:18 0.000643349
4 *70:18 *388:C 6.08467e-05
5 *70:18 *466:A 0
6 *70:18 *475:A 2.53202e-05
7 *70:18 *481:A1 2.58616e-05
8 *70:18 *482:A 5.77496e-05
9 *70:18 *73:22 0.000830028
10 *70:18 *74:12 3.19698e-05
11 *70:18 *106:28 2.49566e-05
12 *70:18 *304:34 8.36586e-06
13 *70:18 *318:30 4.34034e-05
14 *69:14 *70:18 0.000813399
*RES
1 *387:Y *70:18 40.9649 
2 *70:18 *390:A1 9.24915 
*END

*D_NET *71 0.0025839
*CONN
*I *390:B1 I *D sky130_fd_sc_hd__o211ai_1
*I *388:Y O *D sky130_fd_sc_hd__nand3_1
*CAP
1 *390:B1 0.000544074
2 *388:Y 0.000544074
3 *390:B1 *440:B2 0.00019585
4 *390:B1 *444:B2 0.000310094
5 *390:B1 *89:14 0.000160699
6 *390:B1 *303:22 0.000286664
7 *390:B1 *304:14 0.000258819
8 *383:A *390:B1 5.80341e-05
9 *383:B *390:B1 5.68831e-05
10 *440:C1 *390:B1 1.30557e-05
11 *640:A *390:B1 1.23612e-05
12 *644:A *390:B1 0.000143295
*RES
1 *388:Y *390:B1 45.9754 
*END

*D_NET *72 0.00202443
*CONN
*I *390:C1 I *D sky130_fd_sc_hd__o211ai_1
*I *442:B1 I *D sky130_fd_sc_hd__o21a_1
*I *389:Y O *D sky130_fd_sc_hd__a21oi_2
*CAP
1 *390:C1 0.000176474
2 *442:B1 7.01307e-05
3 *389:Y 0.000364402
4 *72:8 0.000611006
5 *390:C1 *440:B1 0.000180642
6 *390:C1 *440:B2 6.11447e-06
7 *390:C1 *538:B 2.06701e-05
8 *390:C1 *77:21 0
9 *390:C1 *89:14 0.000425514
10 *442:B1 *538:B 2.93493e-05
11 *442:B1 *89:14 7.14746e-05
12 *72:8 *538:A 3.64685e-05
13 *72:8 *538:B 2.41274e-06
14 *442:A2 *442:B1 1.90191e-05
15 *49:10 *72:8 1.0758e-05
*RES
1 *389:Y *72:8 18.9094 
2 *72:8 *442:B1 15.9964 
3 *72:8 *390:C1 21.3947 
*END

*D_NET *73 0.00334399
*CONN
*I *391:B1 I *D sky130_fd_sc_hd__a31oi_2
*I *390:Y O *D sky130_fd_sc_hd__o211ai_1
*CAP
1 *391:B1 0
2 *390:Y 0.000514707
3 *73:22 0.000514707
4 *73:22 *444:A2 3.31745e-05
5 *73:22 *74:12 0.000410442
6 *73:22 *91:14 6.08467e-05
7 *73:22 *303:22 0.000207266
8 *391:A2 *73:22 0.000158371
9 *38:16 *73:22 8.96342e-05
10 *69:14 *73:22 0.000524814
11 *70:18 *73:22 0.000830028
*RES
1 *390:Y *73:22 46.6613 
2 *73:22 *391:B1 9.24915 
*END

*D_NET *74 0.00319488
*CONN
*I *395:A2 I *D sky130_fd_sc_hd__o21ai_2
*I *491:A2 I *D sky130_fd_sc_hd__o21bai_1
*I *391:Y O *D sky130_fd_sc_hd__a31oi_2
*CAP
1 *395:A2 7.0553e-05
2 *491:A2 0.000304048
3 *391:Y 0.000424034
4 *74:12 0.000798636
5 *395:A2 *396:B 5.90501e-05
6 *491:A2 *396:B 3.76386e-05
7 *491:A2 *492:B 5.20546e-06
8 *491:A2 *342:8 6.67195e-05
9 *74:12 *444:A2 0.000371021
10 *74:12 *466:A 6.05313e-05
11 *74:12 *318:30 0.000394409
12 *391:A2 *74:12 0.000160617
13 *70:18 *74:12 3.19698e-05
14 *73:22 *74:12 0.000410442
*RES
1 *391:Y *74:12 33.9561 
2 *74:12 *491:A2 15.5668 
3 *74:12 *395:A2 11.0817 
*END

*D_NET *75 0.0052763
*CONN
*I *643:A I *D sky130_fd_sc_hd__buf_4
*I *444:A2 I *D sky130_fd_sc_hd__a221oi_4
*I *392:Y O *D sky130_fd_sc_hd__nand3_1
*CAP
1 *643:A 0
2 *444:A2 0.00077599
3 *392:Y 0.000508966
4 *75:14 0.00128496
5 *444:A2 *444:B1 6.6641e-05
6 *444:A2 *444:B2 4.70315e-05
7 *444:A2 *480:B1 6.08467e-05
8 *444:A2 *480:B2 0.00040319
9 *444:A2 *482:A 7.38026e-07
10 *444:A2 *493:A 0.000110977
11 *444:A2 *91:14 2.8419e-05
12 *444:A2 *318:30 0.000253069
13 *444:A2 *320:8 3.20069e-06
14 *75:14 *395:A1 6.50586e-05
15 *75:14 *445:B 7.07282e-05
16 *75:14 *533:B 0.000149244
17 *75:14 *77:10 7.42334e-05
18 *75:14 *77:21 4.078e-05
19 *75:14 *318:30 4.70005e-05
20 *655:A *75:14 0.000217158
21 *44:34 *75:14 0.000488839
22 *49:10 *444:A2 2.16355e-05
23 *49:10 *75:14 1.92336e-05
24 *50:10 *444:A2 2.65667e-05
25 *50:10 *75:14 4.0752e-05
26 *63:18 *75:14 1.43983e-05
27 *63:40 *444:A2 5.24475e-05
28 *73:22 *444:A2 3.31745e-05
29 *74:12 *444:A2 0.000371021
*RES
1 *392:Y *75:14 35.7859 
2 *75:14 *444:A2 41.8154 
3 *75:14 *643:A 9.24915 
*END

*D_NET *76 0.002246
*CONN
*I *394:B1 I *D sky130_fd_sc_hd__a31oi_2
*I *393:X O *D sky130_fd_sc_hd__a21o_1
*CAP
1 *394:B1 0.000783291
2 *393:X 0.000783291
3 *394:B1 *396:A 3.83055e-05
4 *394:B1 *396:B 0.000112354
5 *394:B1 *445:B 0
6 *394:B1 *77:10 1.41976e-05
7 *394:B1 *91:14 5.49195e-05
8 *394:B1 *105:10 9.78334e-05
9 *394:B1 *319:16 2.20471e-05
10 *392:C *394:B1 0
11 *393:A2 *394:B1 0
12 *394:A1 *394:B1 0.000109421
13 *394:A2 *394:B1 5.20308e-05
14 *656:A *394:B1 2.68139e-05
15 *657:A *394:B1 0.000151494
16 *63:40 *394:B1 0
*RES
1 *393:X *394:B1 49.0485 
*END

*D_NET *77 0.00344693
*CONN
*I *443:A I *D sky130_fd_sc_hd__and2_4
*I *395:B1 I *D sky130_fd_sc_hd__o21ai_2
*I *642:A I *D sky130_fd_sc_hd__buf_4
*I *394:Y O *D sky130_fd_sc_hd__a31oi_2
*CAP
1 *443:A 0.000295304
2 *395:B1 2.28147e-05
3 *642:A 5.90279e-05
4 *394:Y 0.000304152
5 *77:21 0.000578908
6 *77:10 0.000623969
7 *395:B1 *481:A1 2.16355e-05
8 *395:B1 *87:6 5.04829e-06
9 *443:A *443:B 0.000198752
10 *443:A *481:A1 7.1935e-06
11 *443:A *87:29 0.000347029
12 *77:10 *538:B 0
13 *77:10 *319:16 1.9839e-05
14 *77:21 *395:A1 0
15 *77:21 *481:A1 2.59855e-05
16 *77:21 *538:B 0
17 *77:21 *87:29 5.37077e-05
18 *77:21 *318:30 0
19 *390:C1 *77:21 0
20 *394:B1 *77:10 1.41976e-05
21 *440:C1 *443:A 0
22 *656:A *77:10 1.19705e-05
23 *38:16 *395:B1 6.08467e-05
24 *38:16 *443:A 0.000681531
25 *75:14 *77:10 7.42334e-05
26 *75:14 *77:21 4.078e-05
*RES
1 *394:Y *77:10 20.3205 
2 *77:10 *642:A 15.0271 
3 *77:10 *77:21 6.81502 
4 *77:21 *395:B1 14.4725 
5 *77:21 *443:A 26.7929 
*END

*D_NET *78 0.00286402
*CONN
*I *396:B I *D sky130_fd_sc_hd__xnor2_1
*I *395:Y O *D sky130_fd_sc_hd__o21ai_2
*CAP
1 *396:B 0.000598685
2 *395:Y 0.000598685
3 *396:B *492:B 9.13603e-05
4 *396:B *105:10 0.000658399
5 *396:B *319:16 0.000336185
6 *396:B *342:8 0.000156076
7 *394:B1 *396:B 0.000112354
8 *395:A2 *396:B 5.90501e-05
9 *491:A2 *396:B 3.76386e-05
10 *63:40 *396:B 0.000215587
*RES
1 *395:Y *396:B 49.1637 
*END

*D_NET *79 0.00379958
*CONN
*I *410:A1 I *D sky130_fd_sc_hd__a211oi_4
*I *409:X O *D sky130_fd_sc_hd__a21o_2
*CAP
1 *410:A1 0
2 *409:X 0.000659563
3 *79:14 0.000659563
4 *79:14 *411:B1 4.47179e-05
5 *79:14 *418:B1 0.000122858
6 *79:14 *420:B 0
7 *79:14 *453:A 0.000435829
8 *79:14 *473:A1 0.000165881
9 *79:14 *93:10 5.26815e-05
10 *79:14 *308:14 0.00038834
11 *79:14 *308:16 0.000251669
12 *79:14 *308:29 9.34396e-06
13 *79:14 *314:10 0.000304777
14 *79:14 *314:37 0
15 *79:14 *343:35 1.44057e-05
16 *79:14 *346:16 0.000144402
17 *79:14 *346:26 4.87439e-05
18 *79:14 *358:16 9.83156e-05
19 *391:A2 *79:14 0.000115829
20 *692:A *79:14 0.000186621
21 *69:14 *79:14 9.60366e-05
*RES
1 *409:X *79:14 45.49 
2 *79:14 *410:A1 9.24915 
*END

*D_NET *80 0.00179344
*CONN
*I *411:B1 I *D sky130_fd_sc_hd__a21oi_2
*I *410:Y O *D sky130_fd_sc_hd__a211oi_4
*CAP
1 *411:B1 0.00066274
2 *410:Y 0.00066274
3 *411:B1 *410:A2 8.89541e-05
4 *411:B1 *410:B1 0.000102555
5 *411:B1 *419:B 0.000211546
6 *411:B1 *420:A 1.22085e-05
7 *411:B1 *453:A 3.99086e-06
8 *692:A *411:B1 3.99086e-06
9 *79:14 *411:B1 4.47179e-05
*RES
1 *410:Y *411:B1 33.1109 
*END

*D_NET *81 0.000814986
*CONN
*I *417:A I *D sky130_fd_sc_hd__nor2_2
*I *415:Y O *D sky130_fd_sc_hd__a211oi_1
*CAP
1 *417:A 0.000277301
2 *415:Y 0.000277301
3 *417:A *417:B 4.03096e-05
4 *415:A2 *417:A 0.000107496
5 *53:25 *417:A 6.08467e-05
6 *58:20 *417:A 5.17311e-05
*RES
1 *415:Y *417:A 25.3464 
*END

*D_NET *82 0.000899073
*CONN
*I *417:B I *D sky130_fd_sc_hd__nor2_2
*I *416:Y O *D sky130_fd_sc_hd__o21ai_2
*CAP
1 *417:B 0.00039045
2 *416:Y 0.00039045
3 *417:B *369:B 0
4 *417:B *83:6 6.27718e-05
5 *416:A1 *417:B 0
6 *417:A *417:B 4.03096e-05
7 *58:20 *417:B 1.50924e-05
*RES
1 *416:Y *417:B 36.9028 
*END

*D_NET *83 0.00116464
*CONN
*I *695:A I *D sky130_fd_sc_hd__buf_4
*I *690:A I *D sky130_fd_sc_hd__buf_6
*I *417:Y O *D sky130_fd_sc_hd__nor2_2
*CAP
1 *695:A 5.64096e-05
2 *690:A 8.48768e-05
3 *417:Y 0.000304022
4 *83:6 0.000445309
5 *690:A *353:10 1.43698e-05
6 *695:A *485:C1 4.62129e-05
7 *695:A *486:A 1.03594e-05
8 *83:6 *353:10 2.23108e-05
9 *416:A1 *695:A 0.000118002
10 *417:B *83:6 6.27718e-05
*RES
1 *417:Y *83:6 13.8548 
2 *83:6 *690:A 10.9612 
3 *83:6 *695:A 20.4964 
*END

*D_NET *84 0.00377639
*CONN
*I *677:A I *D sky130_fd_sc_hd__buf_6
*I *469:A4 I *D sky130_fd_sc_hd__o41a_1
*I *418:X O *D sky130_fd_sc_hd__o21a_1
*CAP
1 *677:A 0.000455678
2 *469:A4 0.000599236
3 *418:X 0
4 *84:4 0.00105491
5 *469:A4 P[7] 0
6 *469:A4 P[8] 0
7 *469:A4 *411:A2 3.43835e-05
8 *469:A4 *419:B 0.000102353
9 *469:A4 *455:A 0.000127194
10 *469:A4 *469:A3 5.50458e-05
11 *469:A4 *682:A 4.62112e-05
12 *469:A4 *345:10 1.2693e-05
13 *469:A4 *346:38 3.89332e-06
14 *677:A *419:A 0.00011818
15 *677:A *420:B 4.23937e-05
16 *677:A *453:B 0.000551831
17 *677:A *454:A 0.000572379
18 *677:A *317:8 0
19 *654:A *677:A 0
*RES
1 *418:X *84:4 9.24915 
2 *84:4 *469:A4 30.9155 
3 *84:4 *677:A 35.8958 
*END

*D_NET *85 0.000800813
*CONN
*I *420:A I *D sky130_fd_sc_hd__xnor2_1
*I *419:Y O *D sky130_fd_sc_hd__nor2_4
*CAP
1 *420:A 0.000384112
2 *419:Y 0.000384112
3 *420:A *419:B 2.41274e-06
4 *411:B1 *420:A 1.22085e-05
5 *636:A *420:A 0
6 *637:A *420:A 1.79672e-05
*RES
1 *419:Y *420:A 33.7966 
*END

*D_NET *86 0.00732969
*CONN
*I *440:B2 I *D sky130_fd_sc_hd__o221ai_2
*I *451:C1 I *D sky130_fd_sc_hd__a211oi_2
*I *439:X O *D sky130_fd_sc_hd__or2_4
*CAP
1 *440:B2 0.00172545
2 *451:C1 0.000221736
3 *439:X 0.000200216
4 *86:6 0.00214741
5 *440:B2 *440:B1 0.00176389
6 *440:B2 *89:14 4.92017e-06
7 *440:B2 *323:26 1.5714e-05
8 *451:C1 *384:C1 0.000120239
9 *451:C1 *92:8 6.55651e-05
10 *451:C1 *323:26 3.31721e-05
11 *384:A2 *451:C1 0.000165521
12 *384:A2 *86:6 0.000301947
13 *390:B1 *440:B2 0.00019585
14 *390:C1 *440:B2 6.11447e-06
15 *440:C1 *440:B2 0.000361944
*RES
1 *439:X *86:6 12.7456 
2 *86:6 *451:C1 14.4576 
3 *86:6 *440:B2 37.1795 
*END

*D_NET *87 0.00293712
*CONN
*I *444:B1 I *D sky130_fd_sc_hd__a221oi_4
*I *493:A I *D sky130_fd_sc_hd__nand2_2
*I *481:A1 I *D sky130_fd_sc_hd__a31oi_4
*I *440:Y O *D sky130_fd_sc_hd__o221ai_2
*CAP
1 *444:B1 5.56742e-05
2 *493:A 0.00015309
3 *481:A1 0.000222013
4 *440:Y 6.3666e-05
5 *87:29 0.0004855
6 *87:6 0.000562415
7 *481:A1 *395:A1 1.37566e-05
8 *481:A1 *482:A 6.27718e-05
9 *481:A1 *318:30 4.05018e-05
10 *493:A *354:8 6.08467e-05
11 *87:29 *481:B1 2.02035e-05
12 *395:B1 *481:A1 2.16355e-05
13 *395:B1 *87:6 5.04829e-06
14 *440:C1 *87:6 2.99287e-05
15 *440:C1 *87:29 0
16 *443:A *481:A1 7.1935e-06
17 *443:A *87:29 0.000347029
18 *444:A2 *444:B1 6.6641e-05
19 *444:A2 *493:A 0.000110977
20 *38:16 *481:A1 0.000127934
21 *38:16 *493:A 0.000175689
22 *38:16 *87:6 2.12616e-05
23 *69:14 *493:A 0.000177787
24 *70:18 *481:A1 2.58616e-05
25 *77:21 *481:A1 2.59855e-05
26 *77:21 *87:29 5.37077e-05
*RES
1 *440:Y *87:6 11.0817 
2 *87:6 *481:A1 24.8769 
3 *87:6 *87:29 16.6455 
4 *87:29 *493:A 23.8829 
5 *87:29 *444:B1 11.0817 
*END

*D_NET *88 0.00296829
*CONN
*I *442:A1 I *D sky130_fd_sc_hd__o21a_1
*I *441:Y O *D sky130_fd_sc_hd__a21oi_1
*CAP
1 *442:A1 0
2 *441:Y 0.000594119
3 *88:12 0.000594119
4 *88:12 *444:A1 0.000143718
5 *88:12 *474:B1 5.29413e-05
6 *88:12 *538:A 0.000120779
7 *88:12 *344:16 0.0010168
8 *389:A1 *88:12 0
9 *389:A2 *88:12 0.000400527
10 *442:A2 *88:12 1.32509e-05
11 *645:A *88:12 3.20407e-05
*RES
1 *441:Y *88:12 43.3675 
2 *88:12 *442:A1 9.24915 
*END

*D_NET *89 0.00381934
*CONN
*I *691:A I *D sky130_fd_sc_hd__buf_4
*I *443:B I *D sky130_fd_sc_hd__and2_4
*I *442:X O *D sky130_fd_sc_hd__o21a_1
*CAP
1 *691:A 0
2 *443:B 0.000238779
3 *442:X 0.000505723
4 *89:14 0.000744501
5 *443:B *354:8 0.000315549
6 *89:14 *444:A1 0.000169041
7 *89:14 *354:8 0.000107496
8 *383:B *89:14 0.000231913
9 *390:B1 *89:14 0.000160699
10 *390:C1 *89:14 0.000425514
11 *440:B2 *89:14 4.92017e-06
12 *440:C1 *443:B 0
13 *442:A2 *89:14 0.000633723
14 *442:B1 *89:14 7.14746e-05
15 *443:A *443:B 0.000198752
16 *640:A *443:B 0
17 *38:16 *443:B 1.12605e-05
*RES
1 *442:X *89:14 38.0043 
2 *89:14 *443:B 25.6538 
3 *89:14 *691:A 9.24915 
*END

*D_NET *90 0.00134216
*CONN
*I *444:B2 I *D sky130_fd_sc_hd__a221oi_4
*I *443:X O *D sky130_fd_sc_hd__and2_4
*CAP
1 *444:B2 0.000259431
2 *443:X 0.000259431
3 *444:B2 *303:22 0.000110297
4 *390:B1 *444:B2 0.000310094
5 *440:C1 *444:B2 0.000267484
6 *444:A2 *444:B2 4.70315e-05
7 *640:A *444:B2 2.75449e-05
8 *66:8 *444:B2 6.08467e-05
*RES
1 *443:X *444:B2 37.1909 
*END

*D_NET *91 0.00361338
*CONN
*I *445:A I *D sky130_fd_sc_hd__xor2_1
*I *444:Y O *D sky130_fd_sc_hd__a221oi_4
*CAP
1 *445:A 0
2 *444:Y 0.000715711
3 *91:14 0.000715711
4 *91:14 *480:B2 0.000553728
5 *91:14 *482:A 0.000213676
6 *91:14 *104:14 0.000109118
7 *91:14 *105:10 1.87016e-05
8 *91:14 *320:8 0.000539139
9 *394:A3 *91:14 8.71344e-05
10 *394:B1 *91:14 5.49195e-05
11 *444:A2 *91:14 2.8419e-05
12 *479:A *91:14 0.000107496
13 *627:A *91:14 0.000174205
14 *657:A *91:14 1.03594e-05
15 *49:10 *91:14 2.04661e-05
16 *63:40 *91:14 0.000203756
17 *73:22 *91:14 6.08467e-05
*RES
1 *444:Y *91:14 44.5146 
2 *91:14 *445:A 9.24915 
*END

*D_NET *92 0.00308717
*CONN
*I *453:A I *D sky130_fd_sc_hd__nor2_1
*I *473:A1 I *D sky130_fd_sc_hd__o21ai_1
*I *451:Y O *D sky130_fd_sc_hd__a211oi_2
*CAP
1 *453:A 0.000276049
2 *473:A1 0.000114378
3 *451:Y 0.000272865
4 *92:8 0.000663292
5 *453:A *410:A2 0
6 *453:A *419:B 0
7 *453:A *453:B 0.000542247
8 *473:A1 *453:B 9.89271e-05
9 *473:A1 *473:A2 1.80257e-05
10 *473:A1 *93:10 8.25327e-05
11 *473:A1 *358:16 7.34948e-06
12 *92:8 *384:B1 2.99287e-05
13 *92:8 *384:C1 1.93845e-05
14 *92:8 *418:A1 6.55265e-05
15 *92:8 *418:B1 4.24629e-05
16 *384:A1 *92:8 1.75951e-05
17 *411:B1 *453:A 3.99086e-06
18 *451:C1 *92:8 6.55651e-05
19 *658:A *453:A 4.72872e-05
20 *692:A *453:A 8.62625e-06
21 *67:8 *92:8 0.000109427
22 *79:14 *453:A 0.000435829
23 *79:14 *473:A1 0.000165881
*RES
1 *451:Y *92:8 21.1278 
2 *92:8 *473:A1 18.1049 
3 *92:8 *453:A 34.354 
*END

*D_NET *93 0.00288805
*CONN
*I *453:B I *D sky130_fd_sc_hd__nor2_1
*I *473:A2 I *D sky130_fd_sc_hd__o21ai_1
*I *452:Y O *D sky130_fd_sc_hd__o21ai_2
*CAP
1 *453:B 0.000291731
2 *473:A2 0.000167836
3 *452:Y 0.000122691
4 *93:10 0.000582259
5 *453:B P[6] 1.43848e-05
6 *453:B *454:A 2.09549e-05
7 *473:A2 *358:16 6.08467e-05
8 *93:10 *420:B 2.95146e-05
9 *93:10 *452:B1 6.92705e-05
10 *93:10 *454:A 3.80028e-05
11 *93:10 *346:38 6.50727e-05
12 *453:A *453:B 0.000542247
13 *473:A1 *453:B 9.89271e-05
14 *473:A1 *473:A2 1.80257e-05
15 *473:A1 *93:10 8.25327e-05
16 *677:A *453:B 0.000551831
17 *692:A *453:B 7.92347e-05
18 *79:14 *93:10 5.26815e-05
*RES
1 *452:Y *93:10 18.3808 
2 *93:10 *473:A2 16.1364 
3 *93:10 *453:B 27.5896 
*END

*D_NET *94 0.0022315
*CONN
*I *454:A I *D sky130_fd_sc_hd__nor2_1
*I *453:Y O *D sky130_fd_sc_hd__nor2_1
*CAP
1 *454:A 0.000359308
2 *453:Y 0.000359308
3 *454:A *420:B 0.000713578
4 *454:A *455:A 7.34948e-06
5 *453:B *454:A 2.09549e-05
6 *677:A *454:A 0.000572379
7 *692:A *454:A 0.000160617
8 *93:10 *454:A 3.80028e-05
*RES
1 *453:Y *454:A 42.6828 
*END

*D_NET *95 0.00105133
*CONN
*I *455:A I *D sky130_fd_sc_hd__xnor2_1
*I *454:Y O *D sky130_fd_sc_hd__nor2_1
*CAP
1 *455:A 0.000312009
2 *454:Y 0.000312009
3 *455:A *454:B 3.82228e-05
4 *455:A *455:B 6.50727e-05
5 *455:A *469:A3 8.62625e-06
6 *455:A *682:A 5.04829e-06
7 *455:A *345:10 0.000175802
8 *454:A *455:A 7.34948e-06
9 *469:A4 *455:A 0.000127194
*RES
1 *454:Y *455:A 33.9654 
*END

*D_NET *96 0.00223081
*CONN
*I *468:A I *D sky130_fd_sc_hd__nor2_1
*I *466:Y O *D sky130_fd_sc_hd__nor3_2
*CAP
1 *468:A 0.000677669
2 *466:Y 0.000677669
3 *468:A *466:B 0.000505256
4 *468:A *468:B 6.08467e-05
5 *468:A *469:A2 2.77625e-06
6 *468:A *469:B1 3.46072e-05
7 *468:A *470:A 0.000157107
8 *468:A *494:B 0.000109827
9 *468:A *314:10 5.04829e-06
*RES
1 *466:Y *468:A 47.1115 
*END

*D_NET *97 0.00154699
*CONN
*I *468:B I *D sky130_fd_sc_hd__nor2_1
*I *471:A I *D sky130_fd_sc_hd__nor2b_1
*I *467:Y O *D sky130_fd_sc_hd__nor2_1
*CAP
1 *468:B 7.72954e-05
2 *471:A 0.000134196
3 *467:Y 7.98254e-05
4 *97:8 0.000291317
5 *468:B *466:A 0.000114659
6 *468:B *469:A2 7.92757e-06
7 *468:B *469:B1 1.41976e-05
8 *471:A *466:A 0.000246111
9 *471:A *475:B 6.08467e-05
10 *97:8 *455:B 0.000107496
11 *391:A3 *468:B 0.000107643
12 *391:A3 *471:A 0.000244627
13 *468:A *468:B 6.08467e-05
*RES
1 *467:Y *97:8 15.0271 
2 *97:8 *471:A 19.2113 
3 *97:8 *468:B 16.7198 
*END

*D_NET *98 0.000587119
*CONN
*I *469:B1 I *D sky130_fd_sc_hd__o41a_1
*I *468:Y O *D sky130_fd_sc_hd__nor2_1
*CAP
1 *469:B1 0.000127699
2 *468:Y 0.000127699
3 *469:B1 *466:B 0.000206696
4 *469:B1 *469:A2 5.97411e-05
5 *469:B1 *314:10 1.64789e-05
6 *468:A *469:B1 3.46072e-05
7 *468:B *469:B1 1.41976e-05
*RES
1 *468:Y *469:B1 23.1521 
*END

*D_NET *99 0.000834348
*CONN
*I *470:A I *D sky130_fd_sc_hd__xor2_1
*I *469:X O *D sky130_fd_sc_hd__o41a_1
*CAP
1 *470:A 0.000261098
2 *469:X 0.000261098
3 *470:A *455:B 3.70431e-05
4 *470:A *466:B 0.000118002
5 *468:A *470:A 0.000157107
*RES
1 *469:X *470:A 32.6874 
*END

*D_NET *100 0.000240329
*CONN
*I *474:A1 I *D sky130_fd_sc_hd__a21oi_2
*I *471:Y O *D sky130_fd_sc_hd__nor2b_1
*CAP
1 *474:A1 9.44164e-05
2 *471:Y 9.44164e-05
3 *474:A1 *475:A 1.50924e-05
4 *474:A1 *475:B 3.64034e-05
*RES
1 *471:Y *474:A1 20.9096 
*END

*D_NET *101 0.000321925
*CONN
*I *473:B1 I *D sky130_fd_sc_hd__o21ai_1
*I *472:Y O *D sky130_fd_sc_hd__nor2_1
*CAP
1 *473:B1 2.09529e-05
2 *472:Y 2.09529e-05
3 *473:B1 *472:B 6.3657e-05
4 *473:B1 *358:16 0.000171899
5 *38:8 *473:B1 4.44637e-05
*RES
1 *472:Y *473:B1 20.3309 
*END

*D_NET *102 0.00179909
*CONN
*I *474:A2 I *D sky130_fd_sc_hd__a21oi_2
*I *473:Y O *D sky130_fd_sc_hd__o21ai_1
*CAP
1 *474:A2 0.000432082
2 *473:Y 0.000432082
3 *474:A2 *472:B 0.000258002
4 *651:A *474:A2 2.29941e-05
5 *38:16 *474:A2 0.000653931
*RES
1 *473:Y *474:A2 40.7123 
*END

*D_NET *103 0.00114498
*CONN
*I *475:B I *D sky130_fd_sc_hd__xnor2_1
*I *474:Y O *D sky130_fd_sc_hd__a21oi_2
*CAP
1 *475:B 0.000316031
2 *474:Y 0.000316031
3 *475:B *471:B_N 6.08467e-05
4 *475:B *475:A 0.000354824
5 *471:A *475:B 6.08467e-05
6 *474:A1 *475:B 3.64034e-05
*RES
1 *474:Y *475:B 26.3351 
*END

*D_NET *104 0.00172635
*CONN
*I *480:A2_N I *D sky130_fd_sc_hd__o2bb2ai_1
*I *481:A2 I *D sky130_fd_sc_hd__a31oi_4
*I *478:Y O *D sky130_fd_sc_hd__nor2_1
*CAP
1 *480:A2_N 6.94337e-05
2 *481:A2 7.76714e-05
3 *478:Y 0.000205718
4 *104:14 0.000352823
5 *480:A2_N *480:A1_N 0.000206013
6 *480:A2_N *482:A 0.000214379
7 *481:A2 *482:A 3.82228e-05
8 *481:A2 *106:28 2.61955e-05
9 *104:14 *480:A1_N 0.000168186
10 *104:14 *482:A 5.71849e-05
11 *104:14 *105:10 0.000136349
12 *49:10 *104:14 6.50586e-05
13 *91:14 *104:14 0.000109118
*RES
1 *478:Y *104:14 20.9456 
2 *104:14 *481:A2 15.5817 
3 *104:14 *480:A2_N 17.6574 
*END

*D_NET *105 0.00287539
*CONN
*I *480:A1_N I *D sky130_fd_sc_hd__o2bb2ai_1
*I *679:A I *D sky130_fd_sc_hd__buf_4
*I *479:Y O *D sky130_fd_sc_hd__inv_1
*CAP
1 *480:A1_N 0.000128254
2 *679:A 0
3 *479:Y 0.000264095
4 *105:10 0.00039235
5 *480:A1_N *481:A3 0.000214379
6 *480:A1_N *678:A 0.000107643
7 *105:10 *678:A 1.03594e-05
8 *394:A3 *105:10 0.000198752
9 *394:B1 *105:10 9.78334e-05
10 *396:B *105:10 0.000658399
11 *479:A *105:10 3.94472e-05
12 *480:A2_N *480:A1_N 0.000206013
13 *21:22 *480:A1_N 1.79484e-05
14 *21:22 *105:10 0
15 *49:10 *105:10 0.000214073
16 *63:40 *105:10 2.60879e-06
17 *91:14 *105:10 1.87016e-05
18 *104:14 *480:A1_N 0.000168186
19 *104:14 *105:10 0.000136349
*RES
1 *479:Y *105:10 26.8238 
2 *105:10 *679:A 13.7491 
3 *105:10 *480:A1_N 20.5642 
*END

*D_NET *106 0.003538
*CONN
*I *481:B1 I *D sky130_fd_sc_hd__a31oi_4
*I *480:Y O *D sky130_fd_sc_hd__o2bb2ai_1
*CAP
1 *481:B1 1.24773e-05
2 *480:Y 0.00134407
3 *106:28 0.00135654
4 *106:28 *480:B1 0.000394372
5 *106:28 *481:A3 1.03403e-05
6 *106:28 *482:A 6.00304e-05
7 *106:28 *494:A 0.000253365
8 *106:28 *494:B 5.66868e-06
9 *106:28 *678:A 4.65113e-06
10 *106:28 *318:30 1.94472e-05
11 *481:A2 *106:28 2.61955e-05
12 *626:A *106:28 2.8182e-06
13 *38:16 *106:28 2.86353e-06
14 *70:18 *106:28 2.49566e-05
15 *87:29 *481:B1 2.02035e-05
*RES
1 *480:Y *106:28 49.6372 
2 *106:28 *481:B1 14.1278 
*END

*D_NET *107 0.00252
*CONN
*I *482:A I *D sky130_fd_sc_hd__xor2_1
*I *481:Y O *D sky130_fd_sc_hd__a31oi_4
*CAP
1 *482:A 0.000761462
2 *481:Y 0.000761462
3 *482:A *466:A 6.50727e-05
4 *482:A *481:A3 0.000144366
5 *482:A *494:B 2.41483e-05
6 *482:A *318:30 5.87371e-05
7 *444:A2 *482:A 7.38026e-07
8 *480:A2_N *482:A 0.000214379
9 *481:A1 *482:A 6.27718e-05
10 *481:A2 *482:A 3.82228e-05
11 *21:22 *482:A 0
12 *70:18 *482:A 5.77496e-05
13 *91:14 *482:A 0.000213676
14 *104:14 *482:A 5.71849e-05
15 *106:28 *482:A 6.00304e-05
*RES
1 *481:Y *482:A 44.3792 
*END

*D_NET *108 0.00191245
*CONN
*I *485:A2 I *D sky130_fd_sc_hd__a211oi_2
*I *484:X O *D sky130_fd_sc_hd__a21o_1
*CAP
1 *485:A2 0.000378275
2 *484:X 0.000378275
3 *485:A2 *485:A1 0.000352545
4 *485:A2 *360:10 0.000170592
5 *371:A2 *485:A2 0.000491721
6 *61:12 *485:A2 0.000141041
*RES
1 *484:X *485:A2 40.9952 
*END

*D_NET *109 0.00133305
*CONN
*I *486:A I *D sky130_fd_sc_hd__nor2_1
*I *485:Y O *D sky130_fd_sc_hd__a211oi_2
*CAP
1 *486:A 0.000240612
2 *485:Y 0.000240612
3 *486:A *485:C1 0.000544718
4 *486:A *323:16 6.92705e-05
5 *371:B1 *486:A 7.58884e-05
6 *416:A1 *486:A 5.90729e-05
7 *695:A *486:A 1.03594e-05
8 *54:10 *486:A 9.25196e-05
*RES
1 *485:Y *486:A 37.9435 
*END

*D_NET *110 0.000572106
*CONN
*I *492:B I *D sky130_fd_sc_hd__xor2_1
*I *491:Y O *D sky130_fd_sc_hd__o21bai_1
*CAP
1 *492:B 0.000138307
2 *491:Y 0.000138307
3 *492:B *478:B 7.92757e-06
4 *492:B *480:B1 9.96375e-05
5 *396:B *492:B 9.13603e-05
6 *491:A2 *492:B 5.20546e-06
7 *63:40 *492:B 9.13603e-05
*RES
1 *491:Y *492:B 31.3558 
*END

*D_NET *111 0.00194535
*CONN
*I *494:B I *D sky130_fd_sc_hd__xnor2_1
*I *493:Y O *D sky130_fd_sc_hd__nand2_2
*CAP
1 *494:B 0.000329914
2 *493:Y 0.000329914
3 *494:B *466:A 0.000288144
4 *494:B *466:B 5.41227e-05
5 *494:B *480:B1 7.68277e-05
6 *494:B *481:A3 3.93822e-05
7 *494:B *354:8 6.50727e-05
8 *468:A *494:B 0.000109827
9 *482:A *494:B 2.41483e-05
10 *626:A *494:B 2.58757e-05
11 *21:22 *494:B 0.000588088
12 *63:40 *494:B 8.36586e-06
13 *106:28 *494:B 5.66868e-06
*RES
1 *493:Y *494:B 40.4784 
*END

*D_NET *112 0.000873475
*CONN
*I *538:A I *D sky130_fd_sc_hd__ha_1
*I *517:COUT O *D sky130_fd_sc_hd__fa_1
*CAP
1 *538:A 0.000239871
2 *517:COUT 0.000239871
3 *389:A2 *538:A 0.000122518
4 *49:10 *538:A 0.000113968
5 *72:8 *538:A 3.64685e-05
6 *88:12 *538:A 0.000120779
*RES
1 *517:COUT *538:A 33.4107 
*END

*D_NET *113 0.000919314
*CONN
*I *547:A I *D sky130_fd_sc_hd__ha_1
*I *516:COUT O *D sky130_fd_sc_hd__fa_1
*CAP
1 *547:A 0.000459657
2 *516:COUT 0.000459657
*RES
1 *516:COUT *547:A 34.9058 
*END

*D_NET *114 0.000944057
*CONN
*I *533:A I *D sky130_fd_sc_hd__ha_1
*I *547:COUT O *D sky130_fd_sc_hd__ha_1
*CAP
1 *533:A 0.000430184
2 *547:COUT 0.000430184
3 *533:A *547:B 2.8322e-05
4 *533:A *549:A 2.41274e-06
5 *39:6 *533:A 5.29535e-05
*RES
1 *547:COUT *533:A 37.6788 
*END

*D_NET *115 0.00124579
*CONN
*I *549:A I *D sky130_fd_sc_hd__ha_1
*I *546:COUT O *D sky130_fd_sc_hd__ha_1
*CAP
1 *549:A 0.000578441
2 *546:COUT 0.000578441
3 *549:A *546:B 5.55532e-05
4 *549:A *548:A 2.85274e-05
5 *549:A *549:B 2.41274e-06
6 *533:A *549:A 2.41274e-06
*RES
1 *546:COUT *549:A 38.9568 
*END

*D_NET *116 0.000759621
*CONN
*I *535:A I *D sky130_fd_sc_hd__ha_1
*I *549:COUT O *D sky130_fd_sc_hd__ha_1
*CAP
1 *535:A 0.000177835
2 *549:COUT 0.000177835
3 *535:A *548:A 0
4 *535:A *549:B 2.69435e-05
5 *535:A *253:14 0.000347907
6 *393:B1 *535:A 2.90998e-05
7 *630:A *535:A 0
*RES
1 *549:COUT *535:A 33.242 
*END

*D_NET *117 0.000610247
*CONN
*I *519:B I *D sky130_fd_sc_hd__fa_1
*I *548:COUT O *D sky130_fd_sc_hd__ha_1
*CAP
1 *519:B 0.000289385
2 *548:COUT 0.000289385
3 *519:B *518:A 0
4 *519:B *519:CIN 0
5 *519:B *520:A 0
6 *519:B *520:CIN 2.22923e-05
7 *519:B *548:B 9.18559e-06
8 *519:B *253:14 0
*RES
1 *548:COUT *519:B 24.5418 
*END

*D_NET *118 0.000312646
*CONN
*I *520:A I *D sky130_fd_sc_hd__fa_1
*I *519:COUT O *D sky130_fd_sc_hd__fa_1
*CAP
1 *520:A 6.7685e-05
2 *519:COUT 6.7685e-05
3 *520:A *520:CIN 2.55493e-05
4 *520:A *253:14 0.000151726
5 *519:B *520:A 0
*RES
1 *519:COUT *520:A 20.9116 
*END

*D_NET *119 0.000264141
*CONN
*I *520:B I *D sky130_fd_sc_hd__fa_1
*I *518:COUT O *D sky130_fd_sc_hd__fa_1
*CAP
1 *520:B 9.77828e-05
2 *518:COUT 9.77828e-05
3 *520:B *380:A 6.8575e-05
*RES
1 *518:COUT *520:B 12.1307 
*END

*D_NET *120 0.00207071
*CONN
*I *445:B I *D sky130_fd_sc_hd__xor2_1
*I *520:COUT O *D sky130_fd_sc_hd__fa_1
*CAP
1 *445:B 0.000340796
2 *520:COUT 0.000340796
3 *445:B *380:A 5.7339e-05
4 *445:B *533:B 0.000149244
5 *393:A2 *445:B 0
6 *394:B1 *445:B 0
7 *630:A *445:B 0.000740601
8 *44:25 *445:B 7.58217e-06
9 *44:34 *445:B 1.64943e-05
10 *63:18 *445:B 0.00034713
11 *75:14 *445:B 7.07282e-05
*RES
1 *520:COUT *445:B 43.2052 
*END

*D_NET *121 0.00363905
*CONN
*I *516:A I *D sky130_fd_sc_hd__fa_1
*I *514:COUT O *D sky130_fd_sc_hd__fa_1
*CAP
1 *516:A 0.000850965
2 *514:COUT 0.000850965
3 *516:A *427:A 0.00032133
4 *516:A *499:A 0.000856723
5 *516:A *516:B 1.72448e-05
6 *516:A *518:B 0.000102546
7 *516:A *614:A 0.000538893
8 *516:A *347:14 6.22669e-05
9 *464:B *516:A 3.8122e-05
*RES
1 *514:COUT *516:A 39.0403 
*END

*D_NET *122 0.00154781
*CONN
*I *497:A I *D sky130_fd_sc_hd__fa_1
*I *513:COUT O *D sky130_fd_sc_hd__fa_1
*CAP
1 *497:A 0.000301965
2 *513:COUT 0.000301965
3 *497:A *427:A 1.88563e-05
4 *497:A *497:B 0.000579482
5 *497:A *497:CIN 6.94375e-05
6 *497:A *516:CIN 1.78942e-05
7 *497:A *347:25 0.00025821
*RES
1 *513:COUT *497:A 19.7504 
*END

*D_NET *123 0.00039202
*CONN
*I *517:A I *D sky130_fd_sc_hd__fa_1
*I *515:COUT O *D sky130_fd_sc_hd__fa_1
*CAP
1 *517:A 0.000105016
2 *515:COUT 0.000105016
3 *517:A *517:B 0.00015777
4 *517:A *517:CIN 2.42189e-05
*RES
1 *515:COUT *517:A 12.5406 
*END

*D_NET *124 0.000312589
*CONN
*I *546:A I *D sky130_fd_sc_hd__ha_1
*I *497:COUT O *D sky130_fd_sc_hd__fa_1
*CAP
1 *546:A 0.000156295
2 *497:COUT 0.000156295
*RES
1 *497:COUT *546:A 30.4689 
*END

*D_NET *125 0.00292177
*CONN
*I *499:A I *D sky130_fd_sc_hd__fa_1
*I *496:COUT O *D sky130_fd_sc_hd__fa_1
*CAP
1 *499:A 0.000461825
2 *496:COUT 0.000461825
3 *499:A *427:B 6.08467e-05
4 *499:A *498:A 1.10297e-05
5 *499:A *499:B 0.000173288
6 *499:A *500:A 7.14746e-05
7 *499:A *217:16 0.000119382
8 *405:B *499:A 0.000258128
9 *464:A *499:A 0.000115827
10 *464:B *499:A 0.00016233
11 *516:A *499:A 0.000856723
12 *6:10 *499:A 0.000169093
*RES
1 *496:COUT *499:A 38.0679 
*END

*D_NET *126 0.00062332
*CONN
*I *548:A I *D sky130_fd_sc_hd__ha_1
*I *499:COUT O *D sky130_fd_sc_hd__fa_1
*CAP
1 *548:A 0.000297396
2 *499:COUT 0.000297396
3 *548:A *253:14 0
4 *535:A *548:A 0
5 *549:A *548:A 2.85274e-05
*RES
1 *499:COUT *548:A 32.6874 
*END

*D_NET *127 0.000909042
*CONN
*I *543:A I *D sky130_fd_sc_hd__ha_1
*I *498:COUT O *D sky130_fd_sc_hd__fa_1
*CAP
1 *543:A 0.0002094
2 *498:COUT 0.0002094
3 *543:A *518:B 0.000318969
4 *543:A *543:B 0.000171273
*RES
1 *498:COUT *543:A 34.9002 
*END

*D_NET *128 0.000208601
*CONN
*I *518:A I *D sky130_fd_sc_hd__fa_1
*I *543:COUT O *D sky130_fd_sc_hd__ha_1
*CAP
1 *518:A 7.48676e-05
2 *543:COUT 7.48676e-05
3 *518:A *518:B 5.88662e-05
4 *519:B *518:A 0
*RES
1 *543:COUT *518:A 20.4964 
*END

*D_NET *129 0.00150672
*CONN
*I *519:A I *D sky130_fd_sc_hd__fa_1
*I *500:COUT O *D sky130_fd_sc_hd__fa_1
*CAP
1 *519:A 0.000267482
2 *500:COUT 0.000267482
3 *519:A *520:CIN 0.000317828
4 *519:A *614:A 0.000122098
5 *519:A *615:A 0.000118485
6 *519:A *217:16 6.08467e-05
7 *519:A *253:14 3.25584e-05
8 *487:A *519:A 0.00031994
*RES
1 *500:COUT *519:A 29.6474 
*END

*D_NET *130 0.00109397
*CONN
*I *524:A I *D sky130_fd_sc_hd__fa_1
*I *501:COUT O *D sky130_fd_sc_hd__fa_1
*CAP
1 *524:A 0.00034991
2 *501:COUT 0.00034991
3 *524:A *501:A 7.92757e-06
4 *524:A *537:B 0.000117376
5 *524:A *701:A 0.000163912
6 *524:A *330:73 0.000104937
*RES
1 *501:COUT *524:A 19.1958 
*END

*D_NET *131 0.00112841
*CONN
*I *525:A I *D sky130_fd_sc_hd__fa_2
*I *544:COUT O *D sky130_fd_sc_hd__ha_4
*CAP
1 *525:A 0.000299987
2 *544:COUT 0.000299987
3 *525:A *262:26 6.8479e-05
4 *525:A *338:16 6.8479e-05
5 *525:A *361:12 0.000314295
6 *624:A *525:A 7.71803e-05
*RES
1 *544:COUT *525:A 28.3396 
*END

*D_NET *132 0.000376833
*CONN
*I *504:A I *D sky130_fd_sc_hd__fa_2
*I *502:COUT O *D sky130_fd_sc_hd__fa_1
*CAP
1 *504:A 0.000115798
2 *502:COUT 0.000115798
3 *504:A *236:16 8.62625e-06
4 *504:A *332:25 9.43222e-06
5 *504:A *333:17 0.000127179
6 *674:A *504:A 0
*RES
1 *502:COUT *504:A 21.2198 
*END

*D_NET *133 0.00225788
*CONN
*I *526:A I *D sky130_fd_sc_hd__fa_1
*I *504:COUT O *D sky130_fd_sc_hd__fa_2
*CAP
1 *526:A 0.0006413
2 *504:COUT 0.0006413
3 *526:A *512:CIN 4.96007e-05
4 *526:A *545:A 0.000121712
5 *526:A *266:22 0.00045267
6 *402:A *526:A 6.50586e-05
7 *483:A *526:A 2.85537e-06
8 *7:40 *526:A 0.000277704
9 *10:8 *526:A 5.67833e-06
*RES
1 *504:COUT *526:A 33.8027 
*END

*D_NET *134 0.000384681
*CONN
*I *507:A I *D sky130_fd_sc_hd__fa_2
*I *503:COUT O *D sky130_fd_sc_hd__fa_2
*CAP
1 *507:A 3.5518e-05
2 *503:COUT 3.5518e-05
3 *507:A *507:B 0.000156823
4 *507:A *220:16 0.000156823
*RES
1 *503:COUT *507:A 20.9116 
*END

*D_NET *135 0.00124503
*CONN
*I *527:A I *D sky130_fd_sc_hd__fa_1
*I *505:COUT O *D sky130_fd_sc_hd__fa_1
*CAP
1 *527:A 0.000511775
2 *505:COUT 0.000511775
3 *527:A *523:B 6.27782e-05
4 *527:A *527:CIN 2.94933e-05
5 *527:A *545:A 9.80242e-07
6 *489:A *527:A 0.000128227
*RES
1 *505:COUT *527:A 27.1811 
*END

*D_NET *136 0.00234963
*CONN
*I *512:CIN I *D sky130_fd_sc_hd__fa_2
*I *507:COUT O *D sky130_fd_sc_hd__fa_2
*CAP
1 *512:CIN 0.000396549
2 *507:COUT 0.000396549
3 *512:CIN *508:CIN 2.352e-05
4 *512:CIN *510:A 0.000280668
5 *512:CIN *528:CIN 0.000157802
6 *483:A *512:CIN 0.00010612
7 *526:A *512:CIN 4.96007e-05
8 *676:A *512:CIN 0.000234823
9 *686:A *512:CIN 7.40084e-05
10 *10:8 *512:CIN 0.000254881
11 *11:10 *512:CIN 0.000375113
*RES
1 *507:COUT *512:CIN 44.4906 
*END

*D_NET *137 0.000325789
*CONN
*I *528:A I *D sky130_fd_sc_hd__fa_2
*I *545:COUT O *D sky130_fd_sc_hd__ha_1
*CAP
1 *528:A 3.65593e-05
2 *545:COUT 3.65593e-05
3 *528:A *508:B 0.000126335
4 *528:A *545:B 0.000126335
*RES
1 *545:COUT *528:A 20.4964 
*END

*D_NET *138 0.00119943
*CONN
*I *510:A I *D sky130_fd_sc_hd__fa_2
*I *506:COUT O *D sky130_fd_sc_hd__fa_2
*CAP
1 *510:A 0.000272108
2 *506:COUT 0.000272108
3 *510:A *508:A 1.64943e-05
4 *510:A *508:CIN 3.04816e-05
5 *510:A *515:B 0
6 *510:A *528:B 0
7 *510:A *528:CIN 0.000210184
8 *512:CIN *510:A 0.000280668
9 *686:A *510:A 0.000112185
10 *12:18 *510:A 5.20546e-06
*RES
1 *506:COUT *510:A 28.2791 
*END

*D_NET *139 0.00156788
*CONN
*I *512:B I *D sky130_fd_sc_hd__fa_2
*I *508:COUT O *D sky130_fd_sc_hd__fa_1
*CAP
1 *512:B 0.000386537
2 *508:COUT 0.000386537
3 *512:B *512:A 0.00017733
4 *512:B *526:B 0.000148129
5 *512:B *526:CIN 8.05154e-05
6 *512:B *529:A 1.87125e-05
7 *512:B *244:14 7.05879e-05
8 *483:A *512:B 3.56986e-05
9 *489:B *512:B 7.58217e-06
10 *685:A *512:B 0.000162858
11 *8:23 *512:B 9.33914e-05
*RES
1 *508:COUT *512:B 32.0713 
*END

*D_NET *140 0.00239651
*CONN
*I *515:B I *D sky130_fd_sc_hd__fa_1
*I *510:COUT O *D sky130_fd_sc_hd__fa_2
*CAP
1 *515:B 0.000880653
2 *510:COUT 0.000880653
3 *515:B *508:B 1.78514e-05
4 *515:B *515:A 1.04731e-05
5 *515:B *528:B 0
6 *515:B *530:CIN 9.07515e-05
7 *515:B *545:B 9.90332e-05
8 *515:B *244:14 0
9 *515:B *335:14 0.000259095
10 *424:A *515:B 0.000158002
11 *510:A *515:B 0
*RES
1 *510:COUT *515:B 40.0104 
*END

*D_NET *141 0.00191695
*CONN
*I *529:A I *D sky130_fd_sc_hd__fa_1
*I *512:COUT O *D sky130_fd_sc_hd__fa_2
*CAP
1 *529:A 0.00059036
2 *512:COUT 0.00059036
3 *529:A *512:A 0.000101133
4 *529:A *529:B 0.000132294
5 *529:A *530:B 3.25052e-05
6 *512:B *529:A 1.87125e-05
7 *672:A *529:A 1.4893e-05
8 *685:A *529:A 0.000154639
9 *6:40 *529:A 5.04829e-06
10 *8:23 *529:A 0.000277001
*RES
1 *512:COUT *529:A 34.9413 
*END

*D_NET *142 0.000449994
*CONN
*I *514:A I *D sky130_fd_sc_hd__fa_1
*I *509:COUT O *D sky130_fd_sc_hd__fa_1
*CAP
1 *514:A 8.64002e-05
2 *509:COUT 8.64002e-05
3 *436:B *514:A 2.16355e-05
4 *15:75 *514:A 0.0001261
5 *16:59 *514:A 0.000129458
*RES
1 *509:COUT *514:A 21.2198 
*END

*D_NET *143 0.000271955
*CONN
*I *530:A I *D sky130_fd_sc_hd__fa_1
*I *511:COUT O *D sky130_fd_sc_hd__fa_1
*CAP
1 *530:A 0.000102211
2 *511:COUT 0.000102211
3 *530:A *530:CIN 6.75334e-05
*RES
1 *511:COUT *530:A 11.986 
*END

*D_NET *144 0.00421259
*CONN
*I *542:B I *D sky130_fd_sc_hd__ha_4
*I *550:COUT O *D sky130_fd_sc_hd__ha_4
*CAP
1 *542:B 0
2 *550:COUT 0.0012066
3 *144:14 0.0012066
4 *144:14 P[2] 0
5 *144:14 *495:CIN 0.000128521
6 *144:14 *542:A 0.000423729
7 *144:14 *551:A 0.000122083
8 *144:14 *145:12 8.54125e-05
9 *495:B *144:14 0.00103966
*RES
1 *550:COUT *144:14 44.5426 
2 *144:14 *542:B 9.24915 
*END

*D_NET *145 0.00518504
*CONN
*I *540:A I *D sky130_fd_sc_hd__ha_4
*I *551:COUT O *D sky130_fd_sc_hd__ha_4
*CAP
1 *540:A 0.000314171
2 *551:COUT 0.000846364
3 *145:12 0.00116053
4 *540:A *434:B 0.000181372
5 *540:A *532:A 0.00149188
6 *540:A *259:14 0.000312913
7 *145:12 *495:A 3.77765e-05
8 *145:12 *524:B 1.55462e-05
9 *145:12 *551:A 0.00064879
10 *145:12 *551:B 6.87578e-05
11 *434:A *540:A 2.15184e-05
12 *665:A *145:12 0
13 *144:14 *145:12 8.54125e-05
*RES
1 *551:COUT *145:12 38.9447 
2 *145:12 *540:A 25.5014 
*END

*D_NET *146 0.00102868
*CONN
*I *552:A I *D sky130_fd_sc_hd__ha_4
*I *521:COUT O *D sky130_fd_sc_hd__fa_1
*CAP
1 *552:A 0.000284197
2 *521:COUT 0.000284197
3 *552:A *399:B 0
4 *552:A *406:A 0.000186015
5 *552:A *422:B 5.297e-05
6 *552:A *550:B 4.81381e-05
7 *552:A *333:45 0
8 *552:A *339:37 0.000173161
*RES
1 *521:COUT *552:A 36.3896 
*END

*D_NET *147 0.00297571
*CONN
*I *537:A I *D sky130_fd_sc_hd__ha_4
*I *552:COUT O *D sky130_fd_sc_hd__ha_4
*CAP
1 *537:A 0.00114547
2 *552:COUT 0.00114547
3 *537:A *422:A 6.81796e-05
4 *537:A *422:B 1.63652e-05
5 *537:A *522:CIN 9.86581e-05
6 *537:A *537:B 0.000218359
7 *537:A *333:32 7.26748e-05
8 *47:6 *537:A 0.000210531
*RES
1 *552:COUT *537:A 48.5432 
*END

*D_NET *148 0.000575928
*CONN
*I *524:B I *D sky130_fd_sc_hd__fa_1
*I *522:COUT O *D sky130_fd_sc_hd__fa_1
*CAP
1 *524:B 0.000126255
2 *522:COUT 0.000126255
3 *524:B *434:B 5.24785e-05
4 *524:B *532:A 6.08467e-05
5 *524:B *534:B 0.000120779
6 *524:B *551:A 7.37686e-05
7 *145:12 *524:B 1.55462e-05
*RES
1 *522:COUT *524:B 22.7992 
*END

*D_NET *149 0.00465077
*CONN
*I *532:A I *D sky130_fd_sc_hd__ha_4
*I *524:COUT O *D sky130_fd_sc_hd__fa_1
*CAP
1 *532:A 0.000944636
2 *524:COUT 0.000944636
3 *532:A *434:B 1.5006e-05
4 *532:A *532:B 0.000720986
5 *532:A *551:A 0.000169041
6 *532:A *259:14 1.97124e-05
7 *532:A *358:16 4.0752e-05
8 *524:B *532:A 6.08467e-05
9 *540:A *532:A 0.00149188
10 *37:8 *532:A 0.00021569
11 *54:8 *532:A 2.75805e-05
*RES
1 *524:COUT *532:A 49.2185 
*END

*D_NET *150 0.00189097
*CONN
*I *553:A I *D sky130_fd_sc_hd__ha_4
*I *523:COUT O *D sky130_fd_sc_hd__fa_1
*CAP
1 *553:A 0.000825613
2 *523:COUT 0.000825613
3 *553:A *527:B 3.40066e-05
4 *553:A *539:A 1.66237e-05
5 *553:A *541:A 6.27782e-05
6 *62:10 *553:A 0.000126335
*RES
1 *523:COUT *553:A 41.0064 
*END

*D_NET *151 0.00110518
*CONN
*I *541:B I *D sky130_fd_sc_hd__ha_4
*I *553:COUT O *D sky130_fd_sc_hd__ha_4
*CAP
1 *541:B 0.000350435
2 *553:COUT 0.000350435
3 *541:B *262:26 0.000227177
4 *55:6 *541:B 0.000177133
5 *62:10 *541:B 0
*RES
1 *553:COUT *541:B 37.5689 
*END

*D_NET *152 0.00281443
*CONN
*I *527:CIN I *D sky130_fd_sc_hd__fa_1
*I *525:COUT O *D sky130_fd_sc_hd__fa_2
*CAP
1 *527:CIN 0.000625327
2 *525:COUT 0.000625327
3 *527:CIN *448:A 1.4106e-05
4 *527:CIN *448:B 0.000226575
5 *527:CIN *450:A 0.000256285
6 *527:CIN *534:B 0.000307806
7 *527:CIN *541:A 2.85505e-05
8 *527:CIN *262:26 7.28567e-06
9 *527:CIN *338:16 0.000609129
10 *527:A *527:CIN 2.94933e-05
11 *41:16 *527:CIN 2.17699e-05
12 *42:10 *527:CIN 6.27782e-05
*RES
1 *525:COUT *527:CIN 46.689 
*END

*D_NET *153 0.00181865
*CONN
*I *539:A I *D sky130_fd_sc_hd__ha_4
*I *527:COUT O *D sky130_fd_sc_hd__fa_1
*CAP
1 *539:A 0.000846693
2 *527:COUT 0.000846693
3 *371:A1 *539:A 1.43832e-05
4 *371:A2 *539:A 9.42583e-05
5 *553:A *539:A 1.66237e-05
*RES
1 *527:COUT *539:A 41.4217 
*END

*D_NET *154 0.000560653
*CONN
*I *554:A I *D sky130_fd_sc_hd__ha_4
*I *526:COUT O *D sky130_fd_sc_hd__fa_1
*CAP
1 *554:A 0.000118542
2 *526:COUT 0.000118542
3 *554:A *554:B 9.91731e-05
4 *7:40 *554:A 0.000224395
*RES
1 *526:COUT *554:A 23.128 
*END

*D_NET *155 0.000396878
*CONN
*I *536:A I *D sky130_fd_sc_hd__ha_4
*I *554:COUT O *D sky130_fd_sc_hd__ha_4
*CAP
1 *536:A 0.000163804
2 *554:COUT 0.000163804
3 *536:A *536:B 0
4 *536:A *554:B 6.92705e-05
5 *489:B *536:A 0
*RES
1 *554:COUT *536:A 30.8842 
*END

*D_NET *156 0.00204759
*CONN
*I *530:CIN I *D sky130_fd_sc_hd__fa_1
*I *528:COUT O *D sky130_fd_sc_hd__fa_2
*CAP
1 *530:CIN 0.000560357
2 *528:COUT 0.000560357
3 *530:CIN *515:A 0.000301947
4 *530:CIN *529:CIN 0.000188785
5 *530:CIN *530:B 8.59589e-05
6 *530:CIN *335:14 0.000111595
7 *424:A *530:CIN 5.9036e-05
8 *515:B *530:CIN 9.07515e-05
9 *530:A *530:CIN 6.75334e-05
10 *7:23 *530:CIN 2.12721e-05
*RES
1 *528:COUT *530:CIN 43.5515 
*END

*D_NET *157 0.000277912
*CONN
*I *531:A I *D sky130_fd_sc_hd__ha_4
*I *530:COUT O *D sky130_fd_sc_hd__fa_1
*CAP
1 *531:A 0.000126018
2 *530:COUT 0.000126018
3 *531:A *517:B 2.58757e-05
*RES
1 *530:COUT *531:A 30.4689 
*END

*D_NET *158 0.00128168
*CONN
*I *517:B I *D sky130_fd_sc_hd__fa_1
*I *529:COUT O *D sky130_fd_sc_hd__fa_1
*CAP
1 *517:B 0.000395178
2 *529:COUT 0.000395178
3 *517:B *517:CIN 0.000210832
4 *517:B *531:B 9.68437e-05
5 *517:A *517:B 0.00015777
6 *531:A *517:B 2.58757e-05
*RES
1 *529:COUT *517:B 28.814 
*END

*D_NET *1 0.00438184
*CONN
*I *699:A I *D sky130_fd_sc_hd__buf_6
*I *397:B I *D sky130_fd_sc_hd__and2_4
*I *476:B I *D sky130_fd_sc_hd__and2_4
*I *556:X O *D sky130_fd_sc_hd__buf_8
*CAP
1 *699:A 8.69437e-05
2 *397:B 3.95039e-05
3 *476:B 0.000659302
4 *556:X 0.000550035
5 *1:12 0.000813084
6 *1:10 0.000751257
7 *397:B *3:23 0.000112361
8 *476:B *430:A 0
9 *476:B *611:A 0
10 *476:B *4:12 0.000271044
11 *476:B *220:16 6.92571e-05
12 *476:B *336:14 2.02213e-05
13 *699:A *336:26 8.43687e-05
14 *1:10 *503:A 0.000375506
15 *1:10 *507:B 9.17188e-05
16 *1:10 *236:16 5.92192e-05
17 *1:10 *333:8 0.000153146
18 *1:10 *336:14 1.37921e-05
19 *1:10 *336:77 3.2093e-05
20 *1:12 *503:A 0.000144659
21 *1:12 *336:14 5.43299e-05
*RES
1 *556:X *1:10 30.7102 
2 *1:10 *1:12 3.90826 
3 *1:12 *476:B 30.8496 
4 *1:12 *397:B 15.0271 
5 *1:10 *699:A 16.1364 
*END

*D_NET *10 0.00648187
*CONN
*I *675:A I *D sky130_fd_sc_hd__buf_4
*I *414:B I *D sky130_fd_sc_hd__and2_1
*I *483:A I *D sky130_fd_sc_hd__and2_1
*I *617:X O *D sky130_fd_sc_hd__buf_2
*CAP
1 *675:A 0.00025791
2 *414:B 0.000106778
3 *483:A 0.000855439
4 *617:X 0.000162664
5 *10:8 0.00197901
6 *10:6 0.00143737
7 *414:B *508:CIN 2.652e-05
8 *414:B *676:A 0
9 *414:B *266:22 0.00020959
10 *483:A *511:CIN 5.056e-06
11 *483:A *512:A 7.92757e-06
12 *483:A *512:B 3.56986e-05
13 *483:A *512:CIN 0.00010612
14 *483:A *526:A 2.85537e-06
15 *675:A *525:CIN 7.06474e-05
16 *675:A *544:A 0.000122978
17 *675:A *337:22 0.000360401
18 *675:A *361:12 0
19 *10:6 *504:B 0.000120742
20 *10:8 *504:B 0.000105546
21 *10:8 *504:CIN 6.44814e-05
22 *10:8 *512:CIN 0.000254881
23 *10:8 *526:A 5.67833e-06
24 *402:A *414:B 0.000111708
25 *483:B *483:A 5.52748e-05
26 *9:12 *414:B 1.65872e-05
*RES
1 *617:X *10:6 12.191 
2 *10:6 *10:8 15.1431 
3 *10:8 *483:A 22.0533 
4 *10:8 *414:B 22.1896 
5 *10:6 *675:A 27.5557 
*END

*D_NET *326 0.00407981
*CONN
*I *484:B1 I *D sky130_fd_sc_hd__a21o_1
*I *373:C1 I *D sky130_fd_sc_hd__a211oi_4
*I *663:X O *D sky130_fd_sc_hd__buf_4
*CAP
1 *484:B1 0
2 *373:C1 0.00036882
3 *663:X 0.000484458
4 *326:12 0.000853278
5 *373:C1 *373:B1 7.0179e-06
6 *371:A2 *373:C1 0.000728883
7 *371:A2 *326:12 6.07538e-05
8 *374:B1 *326:12 0.000483474
9 *416:A2 *326:12 0.000325796
10 *660:A *373:C1 2.22923e-05
11 *663:A *326:12 0.000449723
12 *53:25 *373:C1 6.46454e-05
13 *53:25 *326:12 6.73023e-05
14 *57:22 *326:12 2.68066e-05
15 *62:10 *373:C1 0
16 *62:10 *326:12 0.000136561
*RES
1 *663:X *326:12 32.686 
2 *326:12 *373:C1 27.2082 
3 *326:12 *484:B1 13.7491 
*END

*D_NET *327 0.00198873
*CONN
*I *369:A I *D sky130_fd_sc_hd__xor2_1
*I *484:A2 I *D sky130_fd_sc_hd__a21o_1
*I *664:X O *D sky130_fd_sc_hd__buf_4
*CAP
1 *369:A 8.13892e-05
2 *484:A2 0.000327199
3 *664:X 0
4 *327:6 0.000408588
5 *369:B *369:A 0.000182657
6 *369:B *484:A2 0.000304627
7 *47:6 *484:A2 0.000230654
8 *58:12 *369:A 8.18738e-05
9 *58:12 *484:A2 2.44579e-05
10 *61:12 *484:A2 0.000294944
11 *325:17 *484:A2 5.23435e-05
*RES
1 *664:X *327:6 13.7491 
2 *327:6 *484:A2 26.0808 
3 *327:6 *369:A 17.2421 
*END

*D_NET *328 0.00142622
*CONN
*I *372:A1 I *D sky130_fd_sc_hd__a21o_2
*I *370:A1 I *D sky130_fd_sc_hd__a211o_1
*I *665:X O *D sky130_fd_sc_hd__buf_4
*CAP
1 *372:A1 0
2 *370:A1 0.000230557
3 *665:X 0.000269916
4 *328:8 0.000500473
5 *370:B1 *370:A1 0.000142785
6 *372:A2 *328:8 0.000214341
7 *34:14 *370:A1 2.99929e-05
8 *41:16 *370:A1 2.74378e-05
9 *41:16 *328:8 9.54357e-06
10 *48:16 *370:A1 0
11 *61:12 *370:A1 1.17541e-06
12 *62:10 *370:A1 0
*RES
1 *665:X *328:8 13.8789 
2 *328:8 *370:A1 22.8836 
3 *328:8 *372:A1 9.24915 
*END

*D_NET *329 0.00769371
*CONN
*I *424:B I *D sky130_fd_sc_hd__and2_1
*I *425:B I *D sky130_fd_sc_hd__and2_1
*I *488:B I *D sky130_fd_sc_hd__and2_1
*I *426:B I *D sky130_fd_sc_hd__and2_1
*I *427:B I *D sky130_fd_sc_hd__and2_1
*I *487:B I *D sky130_fd_sc_hd__and2_1
*I *666:X O *D sky130_fd_sc_hd__buf_4
*CAP
1 *424:B 0.00011156
2 *425:B 4.54613e-05
3 *488:B 3.12425e-05
4 *426:B 0
5 *427:B 0.000145093
6 *487:B 0.000244831
7 *666:X 0
8 *329:34 0.000518488
9 *329:26 0.000357327
10 *329:18 0.000732541
11 *329:10 0.000692298
12 *329:4 0.00028586
13 *424:B *335:14 0.000219693
14 *425:B *425:A 0.000377259
15 *425:B *347:8 0.000326398
16 *427:B *427:A 1.07248e-05
17 *329:10 *403:A 0
18 *329:10 *403:B 6.08467e-05
19 *329:10 *425:A 0.000175689
20 *329:10 *335:14 0.000263305
21 *329:18 *400:B 6.27718e-05
22 *329:18 *347:10 0
23 *329:18 *347:25 0.000160001
24 *329:26 *400:B 7.77309e-06
25 *329:26 *426:A 2.22198e-05
26 *329:26 *331:12 7.57243e-06
27 *329:34 *331:12 8.17657e-05
28 *398:A *488:B 3.13805e-06
29 *424:A *424:B 3.20407e-05
30 *488:A *488:B 2.5589e-05
31 *488:A *329:18 2.16355e-05
32 *498:A *427:B 5.9171e-05
33 *498:B *488:B 6.27782e-05
34 *498:B *329:18 0.00015901
35 *499:A *427:B 6.08467e-05
36 *499:B *427:B 2.1883e-05
37 *500:B *329:26 0.000144546
38 *516:B *329:18 0
39 *517:CIN *329:10 0
40 *520:CIN *487:B 1.03403e-05
41 *543:B *329:34 0.000373061
42 *613:A *487:B 0
43 *613:A *329:26 8.08156e-06
44 *613:A *329:34 0.000145323
45 *614:A *427:B 4.93146e-05
46 *614:A *487:B 8.92568e-06
47 *615:A *487:B 0.000379538
48 *622:A *487:B 8.62625e-06
49 *7:23 *424:B 0.000186438
50 *8:12 *329:10 4.3116e-06
51 *8:12 *329:18 0.000148252
52 *8:12 *329:26 0.000308373
53 *8:12 *329:34 1.15389e-05
54 *8:23 *424:B 0.000152878
55 *8:23 *329:10 0.000171288
56 *15:8 *329:26 2.33193e-05
57 *15:21 *329:26 5.02273e-05
58 *16:25 *427:B 5.30345e-05
59 *16:25 *487:B 2.36813e-05
60 *16:25 *329:34 4.58003e-05
*RES
1 *666:X *329:4 9.24915 
2 *329:4 *329:10 11.4894 
3 *329:10 *329:18 17.2024 
4 *329:18 *329:26 16.4835 
5 *329:26 *329:34 10.8779 
6 *329:34 *487:B 21.7028 
7 *329:34 *427:B 17.9655 
8 *329:26 *426:B 9.24915 
9 *329:18 *488:B 10.5513 
10 *329:10 *425:B 17.8002 
11 *329:4 *424:B 23.5748 
*END

*D_NET *347 0.003309
*CONN
*I *403:A I *D sky130_fd_sc_hd__and2_1
*I *412:A I *D sky130_fd_sc_hd__and2_1
*I *400:A I *D sky130_fd_sc_hd__and2_1
*I *405:A I *D sky130_fd_sc_hd__and2_1
*I *477:A I *D sky130_fd_sc_hd__and2_1
*I *684:X O *D sky130_fd_sc_hd__buf_4
*CAP
1 *403:A 0.000165099
2 *412:A 0
3 *400:A 0
4 *405:A 0.000108652
5 *477:A 0
6 *684:X 0.000174996
7 *347:25 0.000286542
8 *347:14 0.000272493
9 *347:10 0.000193621
10 *347:8 0.000439115
11 *389:B1 *403:A 5.04829e-06
12 *400:B *405:A 4.12104e-05
13 *400:B *347:25 3.44412e-06
14 *403:B *403:A 4.80635e-06
15 *412:B *347:10 1.03594e-05
16 *412:B *347:14 0.000183809
17 *425:A *347:8 2.15348e-05
18 *425:B *347:8 0.000326398
19 *427:A *347:14 3.20264e-05
20 *427:A *347:25 0.000109427
21 *497:A *347:25 0.00025821
22 *497:CIN *347:25 3.82887e-05
23 *498:CIN *405:A 5.03545e-06
24 *498:CIN *347:25 1.52821e-05
25 *516:A *347:14 6.22669e-05
26 *516:B *347:10 0.000101148
27 *517:CIN *403:A 7.41203e-05
28 *517:CIN *347:10 5.88662e-05
29 *614:A *347:10 4.19665e-06
30 *684:A *347:8 0.000115934
31 *16:40 *405:A 3.70643e-05
32 *329:10 *403:A 0
33 *329:18 *347:10 0
34 *329:18 *347:25 0.000160001
*RES
1 *684:X *347:8 19.464 
2 *347:8 *347:10 3.493 
3 *347:10 *347:14 7.993 
4 *347:14 *477:A 9.24915 
5 *347:14 *347:25 10.9348 
6 *347:25 *405:A 16.8269 
7 *347:25 *400:A 13.7491 
8 *347:10 *412:A 13.7491 
9 *347:8 *403:A 18.129 
*END

*D_NET *348 0.00337285
*CONN
*I *379:B I *D sky130_fd_sc_hd__and2_1
*I *450:A I *D sky130_fd_sc_hd__and2_1
*I *404:A I *D sky130_fd_sc_hd__and2_1
*I *685:X O *D sky130_fd_sc_hd__buf_4
*CAP
1 *379:B 1.27615e-05
2 *450:A 0.000398236
3 *404:A 0
4 *685:X 4.10385e-05
5 *348:12 0.000712499
6 *348:6 0.000368063
7 *450:A *448:B 0.000112367
8 *448:A *450:A 0.00011818
9 *489:B *348:12 0
10 *523:A *450:A 8.36586e-06
11 *526:CIN *348:12 0.000106233
12 *527:B *450:A 0.000178143
13 *527:B *348:12 0.000122842
14 *527:CIN *450:A 0.000256285
15 *534:B *450:A 9.04726e-06
16 *545:A *348:12 0.00018078
17 *9:12 *450:A 1.03594e-05
18 *9:12 *348:12 0.000122842
19 *9:30 *450:A 0.000319412
20 *11:14 *379:B 4.76794e-05
21 *11:14 *348:6 6.46815e-05
22 *11:24 *348:6 6.49834e-05
23 *236:16 *379:B 2.65667e-05
24 *236:16 *348:6 9.14834e-05
*RES
1 *685:X *348:6 11.6364 
2 *348:6 *348:12 14.9546 
3 *348:12 *404:A 13.7491 
4 *348:12 *450:A 34.3702 
5 *348:6 *379:B 9.97254 
*END

*D_NET *349 0.00576471
*CONN
*I *449:B I *D sky130_fd_sc_hd__and2_1
*I *448:B I *D sky130_fd_sc_hd__and2_1
*I *459:B I *D sky130_fd_sc_hd__and2_1
*I *462:B I *D sky130_fd_sc_hd__and2_1
*I *686:X O *D sky130_fd_sc_hd__buf_4
*CAP
1 *449:B 0.000182531
2 *448:B 0.000103229
3 *459:B 4.69539e-05
4 *462:B 0.000189846
5 *686:X 0
6 *349:34 0.000398897
7 *349:23 0.000812141
8 *349:4 0.000841896
9 *421:A *449:B 0.000277488
10 *448:A *448:B 0.000101916
11 *448:A *349:34 0
12 *450:A *448:B 0.000112367
13 *459:A *459:B 0.000116505
14 *505:A *349:23 0.000151494
15 *505:B *349:23 4.844e-05
16 *505:B *349:34 3.27973e-05
17 *505:CIN *349:23 6.58435e-05
18 *506:B *349:23 8.94238e-05
19 *508:A *462:B 9.76996e-05
20 *508:B *462:B 1.22289e-05
21 *508:CIN *462:B 2.44579e-05
22 *522:B *449:B 3.14978e-05
23 *523:CIN *459:B 1.88563e-05
24 *524:CIN *449:B 0.000186445
25 *524:CIN *459:B 2.58757e-05
26 *524:CIN *349:34 0.000135439
27 *527:CIN *448:B 0.000226575
28 *528:CIN *462:B 9.02099e-06
29 *534:B *449:B 0
30 *676:A *349:23 0.00040514
31 *686:A *462:B 0.000154145
32 *686:A *349:23 2.77625e-06
33 *11:10 *349:23 0.000357011
34 *262:26 *448:B 0.000113197
35 *266:22 *462:B 0.000133355
36 *330:47 *349:23 0
37 *338:16 *448:B 0.000259225
*RES
1 *686:X *349:4 9.24915 
2 *349:4 *462:B 23.8535 
3 *349:4 *349:23 25.4658 
4 *349:23 *459:B 15.5817 
5 *349:23 *349:34 3.493 
6 *349:34 *448:B 20.2115 
7 *349:34 *449:B 20.184 
*END

*D_NET *330 0.0130359
*CONN
*I *435:B I *D sky130_fd_sc_hd__and2_1
*I *434:B I *D sky130_fd_sc_hd__and2_1
*I *431:B I *D sky130_fd_sc_hd__and2_1
*I *456:B I *D sky130_fd_sc_hd__and2_1
*I *457:B I *D sky130_fd_sc_hd__and2_1
*I *447:B I *D sky130_fd_sc_hd__and2_1
*I *446:B I *D sky130_fd_sc_hd__and2_1
*I *667:X O *D sky130_fd_sc_hd__buf_4
*CAP
1 *435:B 0.000548857
2 *434:B 0.000687363
3 *431:B 0
4 *456:B 0
5 *457:B 7.77361e-05
6 *447:B 0.0001925
7 *446:B 0
8 *667:X 9.04289e-05
9 *330:73 0.00176401
10 *330:58 0.00073342
11 *330:47 0.00106719
12 *330:32 0.00124441
13 *330:10 0.000616998
14 *330:6 0.000820044
15 *435:B *433:A 6.27718e-05
16 *435:B *435:A 0.000277488
17 *447:B *461:A 2.65667e-05
18 *457:B *336:26 6.36477e-05
19 *330:10 *461:A 5.4373e-05
20 *330:32 *336:26 1.26939e-05
21 *330:47 *456:A 0.00011818
22 *330:47 *332:31 0.00016217
23 *330:47 *336:26 3.39313e-06
24 *330:47 *339:10 6.50727e-05
25 *330:47 *349:23 0
26 *330:58 *456:A 0.000106215
27 *330:58 *332:31 0
28 *330:58 *333:17 0.000382595
29 *330:73 *701:A 0.000171273
30 *330:73 *332:31 0
31 *330:73 *333:17 0.000512806
32 *330:73 *339:37 0
33 *434:A *434:B 6.50727e-05
34 *458:B *330:6 4.81452e-05
35 *458:B *330:10 0.00031827
36 *461:B *330:10 6.50586e-05
37 *476:A *447:B 8.62625e-06
38 *501:A *330:73 0.00017422
39 *505:CIN *330:47 0
40 *506:A *330:32 0.000288523
41 *506:A *330:47 0.000674484
42 *507:B *457:B 0.000114584
43 *513:CIN *330:10 0.000222149
44 *522:A *435:B 1.43832e-05
45 *522:B *435:B 0
46 *523:CIN *330:58 2.46803e-05
47 *524:A *330:73 0.000104937
48 *524:B *434:B 5.24785e-05
49 *524:CIN *435:B 0.000111326
50 *532:A *434:B 1.5006e-05
51 *540:A *434:B 0.000181372
52 *552:B *435:B 4.94011e-05
53 *632:A *435:B 0
54 *674:A *330:47 0.00011818
55 *674:A *330:58 0.000118166
56 *2:16 *457:B 2.16355e-05
57 *2:16 *330:32 0.000134006
58 *5:38 *447:B 0
59 *9:6 *330:47 3.07561e-05
60 *12:12 *330:47 2.06701e-05
61 *12:51 *330:47 3.40489e-05
62 *14:6 *330:6 6.22703e-05
63 *14:6 *330:10 1.92336e-05
64 *15:62 *447:B 0
65 *15:75 *447:B 0
66 *220:16 *330:32 8.2026e-05
*RES
1 *667:X *330:6 11.6364 
2 *330:6 *330:10 12.3942 
3 *330:10 *446:B 9.24915 
4 *330:10 *447:B 22.8808 
5 *330:6 *330:32 13.8065 
6 *330:32 *457:B 16.1364 
7 *330:32 *330:47 31.2822 
8 *330:47 *456:B 9.24915 
9 *330:47 *330:58 12.593 
10 *330:58 *431:B 13.7491 
11 *330:58 *330:73 21.2093 
12 *330:73 *434:B 21.1128 
13 *330:73 *435:B 32.5738 
*END

*D_NET *332 0.00913184
*CONN
*I *429:B I *D sky130_fd_sc_hd__and2_4
*I *428:B I *D sky130_fd_sc_hd__and2_1
*I *423:B I *D sky130_fd_sc_hd__and2_4
*I *421:B I *D sky130_fd_sc_hd__and2_1
*I *430:B I *D sky130_fd_sc_hd__and2_1
*I *669:X O *D sky130_fd_sc_hd__buf_6
*CAP
1 *429:B 0
2 *428:B 0.000603565
3 *423:B 0
4 *421:B 7.68991e-05
5 *430:B 0
6 *669:X 0.000130833
7 *332:31 0.00124026
8 *332:25 0.00140446
9 *332:10 0.000975492
10 *428:B *465:A 6.23875e-05
11 *428:B *337:22 0.000147024
12 *428:B *338:40 0.000257146
13 *428:B *361:14 6.73186e-05
14 *332:10 *336:14 5.81507e-05
15 *332:25 *378:A 0.000277207
16 *332:25 *465:B 2.50929e-05
17 *332:25 *336:14 9.03762e-06
18 *332:25 *336:77 6.39311e-05
19 *332:31 *339:10 0.000328154
20 *332:31 *339:28 0.000376344
21 *332:31 *339:37 3.31733e-05
22 *429:A *332:25 2.53249e-05
23 *430:A *332:10 0.000169684
24 *501:A *428:B 6.08467e-05
25 *501:B *428:B 0.000169093
26 *502:A *332:25 0
27 *502:B *332:25 9.29777e-05
28 *502:CIN *332:25 0.000398179
29 *503:B *332:25 1.2693e-05
30 *503:CIN *332:25 0.000288538
31 *504:A *332:25 9.43222e-06
32 *504:B *332:25 0
33 *521:CIN *428:B 0.000227449
34 *523:CIN *332:31 4.04935e-05
35 *555:A *428:B 0
36 *556:A *332:25 0
37 *609:A *332:25 1.33885e-05
38 *631:A *428:B 0
39 *674:A *332:31 0.000379606
40 *3:14 *332:10 0.000111352
41 *9:79 *421:B 0.00010616
42 *9:79 *428:B 0.000616977
43 *12:51 *332:31 3.31733e-05
44 *166:8 *421:B 5.28741e-05
45 *236:16 *332:25 2.49496e-05
46 *330:47 *332:31 0.00016217
47 *330:58 *332:31 0
48 *330:73 *332:31 0
*RES
1 *669:X *332:10 18.5201 
2 *332:10 *430:B 13.7491 
3 *332:10 *332:25 30.4761 
4 *332:25 *332:31 29.1031 
5 *332:31 *421:B 12.191 
6 *332:31 *423:B 9.24915 
7 *332:31 *428:B 41.6025 
8 *332:25 *429:B 9.24915 
*END

*D_NET *333 0.00912526
*CONN
*I *366:A I *D sky130_fd_sc_hd__and2_1
*I *406:B I *D sky130_fd_sc_hd__and2_1
*I *399:A I *D sky130_fd_sc_hd__and2_1
*I *401:A I *D sky130_fd_sc_hd__and2_1
*I *408:A I *D sky130_fd_sc_hd__and2_1
*I *367:A I *D sky130_fd_sc_hd__and2_4
*I *670:X O *D sky130_fd_sc_hd__buf_6
*CAP
1 *366:A 5.78851e-05
2 *406:B 0
3 *399:A 0.000492245
4 *401:A 0.00012719
5 *408:A 3.23952e-05
6 *367:A 0
7 *670:X 0
8 *333:45 0.00072814
9 *333:32 0.000491391
10 *333:17 0.000831105
11 *333:8 0.000920004
12 *333:4 0.000307486
13 *366:A *378:A 5.04829e-06
14 *399:A *406:A 0.000324151
15 *408:A *422:A 0.000157107
16 *333:8 *336:77 0.000748189
17 *333:17 *465:B 0.00133431
18 *333:17 *701:A 3.61659e-05
19 *333:17 *336:77 1.03594e-05
20 *333:17 *337:22 0
21 *333:17 *339:37 0
22 *333:17 *364:10 6.42436e-05
23 *333:32 *422:B 7.62627e-06
24 *333:32 *364:10 0.00017046
25 *333:45 *399:B 1.07248e-05
26 *333:45 *338:62 5.79689e-05
27 *333:45 *364:10 0.000220524
28 P[2] *399:A 0
29 *495:B *399:A 9.49732e-05
30 *504:A *333:17 0.000127179
31 *504:CIN *333:17 9.60366e-05
32 *521:CIN *333:45 2.53624e-06
33 *522:CIN *408:A 0.000157107
34 *537:A *333:32 7.26748e-05
35 *550:A *399:A 1.59917e-05
36 *550:B *399:A 0
37 *552:A *333:45 0
38 *674:A *333:17 0
39 *1:10 *333:8 0.000153146
40 *2:6 *366:A 2.20471e-05
41 *236:16 *333:8 0.000244155
42 *236:16 *333:17 0.000109288
43 *330:58 *333:17 0.000382595
44 *330:73 *333:17 0.000512806
*RES
1 *670:X *333:4 9.24915 
2 *333:4 *333:8 17.5438 
3 *333:8 *367:A 13.7491 
4 *333:8 *333:17 30.0691 
5 *333:17 *408:A 15.5817 
6 *333:17 *333:32 4.39679 
7 *333:32 *401:A 16.1364 
8 *333:32 *333:45 11.315 
9 *333:45 *399:A 30.6694 
10 *333:45 *406:B 9.24915 
11 *333:4 *366:A 10.5271 
*END

*D_NET *11 0.00667343
*CONN
*I *676:A I *D sky130_fd_sc_hd__buf_4
*I *379:A I *D sky130_fd_sc_hd__and2_1
*I *365:B I *D sky130_fd_sc_hd__and2_1
*I *424:A I *D sky130_fd_sc_hd__and2_1
*I *618:X O *D sky130_fd_sc_hd__buf_6
*CAP
1 *676:A 0.000212922
2 *379:A 0
3 *365:B 9.029e-05
4 *424:A 0.000300852
5 *618:X 0.000482292
6 *11:24 0.00104376
7 *11:14 0.000929929
8 *11:10 0.000972528
9 *365:B *511:B 0.000156199
10 *424:A *424:B 3.20407e-05
11 *424:A *515:B 0.000158002
12 *424:A *530:CIN 5.9036e-05
13 *424:A *335:14 8.36586e-06
14 *676:A *505:CIN 2.23259e-05
15 *676:A *512:CIN 0.000234823
16 *676:A *349:23 0.00040514
17 *11:10 *506:B 1.21985e-05
18 *11:10 *512:CIN 0.000375113
19 *11:10 *12:12 2.22974e-05
20 *11:10 *349:23 0.000357011
21 *11:14 *379:B 4.76794e-05
22 *11:14 *508:B 2.58616e-05
23 *11:14 *236:16 0.000124315
24 *11:14 *348:6 6.46815e-05
25 *11:24 *511:CIN 0.000168313
26 *11:24 *512:A 5.20546e-06
27 *11:24 *236:16 8.21761e-06
28 *11:24 *348:6 6.49834e-05
29 *414:B *676:A 0
30 *686:A *11:10 5.04829e-06
31 *7:23 *365:B 0.000110815
32 *7:23 *424:A 0.000119292
33 *7:40 *365:B 1.07248e-05
34 *9:6 *676:A 4.31703e-05
*RES
1 *618:X *11:10 27.9428 
2 *11:10 *11:14 11.8786 
3 *11:14 *11:24 16.5325 
4 *11:24 *424:A 21.5663 
5 *11:24 *365:B 18.0727 
6 *11:14 *379:A 9.24915 
7 *11:10 *676:A 22.2574 
*END

*D_NET *334 0.000281859
*CONN
*I *397:A I *D sky130_fd_sc_hd__and2_4
*I *671:X O *D sky130_fd_sc_hd__buf_4
*CAP
1 *397:A 6.14105e-05
2 *671:X 6.14105e-05
3 *3:23 *397:A 0.000159038
*RES
1 *671:X *397:A 20.3309 
*END

*D_NET *331 0.00574217
*CONN
*I *461:A I *D sky130_fd_sc_hd__and2_1
*I *376:A I *D sky130_fd_sc_hd__and2_1
*I *400:B I *D sky130_fd_sc_hd__and2_1
*I *426:A I *D sky130_fd_sc_hd__and2_1
*I *668:X O *D sky130_fd_sc_hd__buf_4
*CAP
1 *461:A 0.000460054
2 *376:A 0.000232049
3 *400:B 0.000234364
4 *426:A 2.57467e-05
5 *668:X 0.000390557
6 *331:34 0.000692102
7 *331:12 0.000677255
8 *331:8 0.000807701
9 *400:B *405:A 4.12104e-05
10 *400:B *347:25 3.44412e-06
11 *376:B *376:A 0.000351993
12 *376:B *331:8 1.65872e-05
13 *376:B *331:12 5.04829e-06
14 *446:A *461:A 0.00011818
15 *447:B *461:A 2.65667e-05
16 *464:B *376:A 0
17 *464:B *461:A 0
18 *496:A *331:8 2.81717e-05
19 *496:CIN *376:A 9.37259e-05
20 *498:B *400:B 3.11366e-05
21 *498:CIN *400:B 0.000112361
22 *500:A *331:8 4.91225e-06
23 *500:A *331:12 1.5006e-05
24 *514:CIN *461:A 6.08467e-05
25 *543:B *426:A 5.41227e-05
26 *613:A *331:12 4.801e-05
27 *668:A *331:8 4.81015e-05
28 *5:8 *376:A 0
29 *6:67 *331:12 0.000229142
30 *8:12 *400:B 0.00028846
31 *8:12 *331:12 6.50727e-05
32 *16:40 *400:B 0
33 *16:59 *376:A 2.04806e-05
34 *16:59 *461:A 9.2346e-06
35 *16:66 *331:8 0.000127271
36 *223:22 *461:A 7.50722e-05
37 *223:22 *331:8 0.000111708
38 *329:18 *400:B 6.27718e-05
39 *329:26 *400:B 7.77309e-06
40 *329:26 *426:A 2.22198e-05
41 *329:26 *331:12 7.57243e-06
42 *329:34 *331:12 8.17657e-05
43 *330:10 *461:A 5.4373e-05
*RES
1 *668:X *331:8 19.4249 
2 *331:8 *331:12 15.2063 
3 *331:12 *426:A 14.7506 
4 *331:12 *400:B 21.0117 
5 *331:8 *331:34 4.5 
6 *331:34 *376:A 20.9794 
7 *331:34 *461:A 24.286 
*END

*D_NET *350 0.00278367
*CONN
*I *366:B I *D sky130_fd_sc_hd__and2_1
*I *378:A I *D sky130_fd_sc_hd__and2_4
*I *687:X O *D sky130_fd_sc_hd__buf_6
*CAP
1 *366:B 2.12792e-05
2 *378:A 0.000231705
3 *687:X 0.000496778
4 *350:12 0.000749763
5 *350:12 *688:A 2.89638e-05
6 *366:A *378:A 5.04829e-06
7 *2:6 *378:A 0.000112361
8 *2:6 *350:12 0.000243997
9 *332:25 *378:A 0.000277207
10 *336:77 *378:A 0.000616572
*RES
1 *687:X *350:12 30.5031 
2 *350:12 *378:A 30.0794 
3 *350:12 *366:B 9.82786 
*END

*D_NET *336 0.0121616
*CONN
*I *465:B I *D sky130_fd_sc_hd__and2_4
*I *367:B I *D sky130_fd_sc_hd__and2_4
*I *457:A I *D sky130_fd_sc_hd__and2_1
*I *463:A I *D sky130_fd_sc_hd__and2_1
*I *413:A I *D sky130_fd_sc_hd__and2_1
*I *477:B I *D sky130_fd_sc_hd__and2_1
*I *427:A I *D sky130_fd_sc_hd__and2_1
*I *673:X O *D sky130_fd_sc_hd__buf_6
*CAP
1 *465:B 0.000556074
2 *367:B 0
3 *457:A 0
4 *463:A 0
5 *413:A 1.90278e-05
6 *477:B 0
7 *427:A 0.000216153
8 *673:X 0.000336385
9 *336:77 0.000857029
10 *336:40 0.000796937
11 *336:32 0.00104922
12 *336:28 0.000654617
13 *336:26 0.000830209
14 *336:14 0.00126234
15 *427:A *347:14 3.20264e-05
16 *427:A *347:25 0.000109427
17 *465:B *701:A 1.44611e-05
18 *465:B *337:22 3.79636e-05
19 *336:26 *688:A 6.27718e-05
20 *336:77 *378:A 0.000616572
21 *412:B *427:A 3.48792e-05
22 *412:B *336:40 0.000138334
23 *413:B *413:A 1.05106e-05
24 *413:B *336:32 2.99287e-05
25 *413:B *336:40 2.99287e-05
26 *427:B *427:A 1.07248e-05
27 *430:A *336:14 2.18888e-05
28 *457:B *336:26 6.36477e-05
29 *463:B *336:28 0.000112361
30 *476:B *336:14 2.02213e-05
31 *497:A *427:A 1.88563e-05
32 *497:CIN *427:A 5.481e-05
33 *498:A *427:A 0.000172721
34 *502:B *465:B 4.63668e-05
35 *506:B *336:26 6.28795e-05
36 *510:B *336:28 3.14978e-05
37 *514:B *336:32 0.000112756
38 *516:A *427:A 0.00032133
39 *518:B *336:40 6.27782e-05
40 *525:CIN *465:B 0.000362718
41 *614:A *427:A 2.04806e-05
42 *614:A *336:40 4.89392e-05
43 *617:A *465:B 0
44 *673:A *336:14 0.000115934
45 *686:A *336:28 0.000256307
46 *699:A *336:26 8.43687e-05
47 *1:10 *336:14 1.37921e-05
48 *1:10 *336:77 3.2093e-05
49 *1:12 *336:14 5.43299e-05
50 *2:16 *336:26 5.47957e-05
51 *7:10 *336:40 4.50801e-05
52 *330:32 *336:26 1.26939e-05
53 *330:47 *336:26 3.39313e-06
54 *332:10 *336:14 5.81507e-05
55 *332:25 *465:B 2.50929e-05
56 *332:25 *336:14 9.03762e-06
57 *332:25 *336:77 6.39311e-05
58 *333:8 *336:77 0.000748189
59 *333:17 *465:B 0.00133431
60 *333:17 *336:77 1.03594e-05
*RES
1 *673:X *336:14 23.1612 
2 *336:14 *336:26 24.8191 
3 *336:26 *336:28 6.26943 
4 *336:28 *336:32 10.5857 
5 *336:32 *336:40 22.9234 
6 *336:40 *427:A 26.8968 
7 *336:40 *477:B 9.24915 
8 *336:32 *413:A 9.82786 
9 *336:28 *463:A 9.24915 
10 *336:26 *457:A 9.24915 
11 *336:14 *336:77 15.5353 
12 *336:77 *367:B 13.7491 
13 *336:77 *465:B 37.5895 
*END

*D_NET *337 0.00383937
*CONN
*I *408:B I *D sky130_fd_sc_hd__and2_1
*I *422:A I *D sky130_fd_sc_hd__and2_4
*I *456:A I *D sky130_fd_sc_hd__and2_1
*I *674:X O *D sky130_fd_sc_hd__buf_4
*CAP
1 *408:B 2.4067e-05
2 *422:A 0.000147895
3 *456:A 0.000161723
4 *674:X 0.000664209
5 *337:22 0.000674447
6 *337:22 *701:A 0.000186445
7 *337:22 *338:40 0
8 *337:22 *364:10 4.6662e-05
9 *408:A *422:A 0.000157107
10 *428:B *337:22 0.000147024
11 *465:B *337:22 3.79636e-05
12 *501:B *337:22 2.65017e-05
13 *521:CIN *337:22 6.93171e-05
14 *522:CIN *408:B 2.08274e-05
15 *522:CIN *422:A 0.000194241
16 *525:CIN *337:22 0.000570089
17 *537:A *422:A 6.81796e-05
18 *674:A *456:A 3.58044e-05
19 *675:A *337:22 0.000360401
20 *9:6 *456:A 2.20702e-05
21 *330:47 *456:A 0.00011818
22 *330:58 *456:A 0.000106215
23 *333:17 *337:22 0
*RES
1 *674:X *456:A 23.1039 
2 *674:X *337:22 37.937 
3 *337:22 *422:A 14.6023 
4 *337:22 *408:B 9.97254 
*END

*D_NET *335 0.0032473
*CONN
*I *425:A I *D sky130_fd_sc_hd__and2_1
*I *403:B I *D sky130_fd_sc_hd__and2_1
*I *672:X O *D sky130_fd_sc_hd__buf_4
*CAP
1 *425:A 0.000290465
2 *403:B 0.00010886
3 *672:X 0.000323414
4 *335:14 0.000722739
5 *403:B *403:A 4.80635e-06
6 *425:A *347:8 2.15348e-05
7 *389:B1 *425:A 0
8 *424:A *335:14 8.36586e-06
9 *424:B *335:14 0.000219693
10 *425:B *425:A 0.000377259
11 *515:B *335:14 0.000259095
12 *515:CIN *403:B 0.000118166
13 *515:CIN *335:14 6.50727e-05
14 *530:CIN *335:14 0.000111595
15 *6:40 *335:14 0
16 *7:23 *425:A 0
17 *8:12 *425:A 6.81008e-05
18 *8:23 *335:14 4.82966e-05
19 *329:10 *403:B 6.08467e-05
20 *329:10 *425:A 0.000175689
21 *329:10 *335:14 0.000263305
*RES
1 *672:X *335:14 29.5683 
2 *335:14 *403:B 12.625 
3 *335:14 *425:A 27.4811 
*END

*D_NET *339 0.0060268
*CONN
*I *406:A I *D sky130_fd_sc_hd__and2_1
*I *433:A I *D sky130_fd_sc_hd__and2_1
*I *423:A I *D sky130_fd_sc_hd__and2_4
*I *431:A I *D sky130_fd_sc_hd__and2_1
*I *459:A I *D sky130_fd_sc_hd__and2_1
*I *676:X O *D sky130_fd_sc_hd__buf_4
*CAP
1 *406:A 0.000148359
2 *433:A 0.000125035
3 *423:A 0
4 *431:A 8.31644e-05
5 *459:A 9.47417e-05
6 *676:X 0.000227797
7 *339:37 0.000799791
8 *339:28 0.000724911
9 *339:12 0.000177906
10 *339:10 0.000426311
11 *433:A *433:B 0.000267394
12 *459:A *459:B 0.000116505
13 *399:A *406:A 0.000324151
14 *435:A *433:A 1.37669e-05
15 *435:B *433:A 6.27718e-05
16 *495:B *406:A 0.000139764
17 *501:A *339:37 0
18 *523:CIN *431:A 0.000142909
19 *523:CIN *459:A 0.000364109
20 *524:CIN *339:28 0
21 *524:CIN *339:37 0
22 *525:B *339:10 0.000113096
23 *525:B *339:28 0.000193411
24 *537:B *339:37 6.65668e-05
25 *550:A *406:A 2.6065e-05
26 *550:B *406:A 9.89388e-06
27 *552:A *406:A 0.000186015
28 *552:A *339:37 0.000173161
29 *9:6 *339:10 0.000216458
30 *330:47 *339:10 6.50727e-05
31 *330:73 *339:37 0
32 *332:31 *339:10 0.000328154
33 *332:31 *339:28 0.000376344
34 *332:31 *339:37 3.31733e-05
35 *333:17 *339:37 0
*RES
1 *676:X *339:10 22.1209 
2 *339:10 *339:12 4.5 
3 *339:12 *459:A 13.3002 
4 *339:12 *431:A 11.6364 
5 *339:10 *339:28 6.81502 
6 *339:28 *423:A 13.7491 
7 *339:28 *339:37 13.4591 
8 *339:37 *433:A 17.8002 
9 *339:37 *406:A 20.7386 
*END

*D_NET *338 0.00999683
*CONN
*I *428:A I *D sky130_fd_sc_hd__and2_1
*I *399:B I *D sky130_fd_sc_hd__and2_1
*I *435:A I *D sky130_fd_sc_hd__and2_1
*I *490:B I *D sky130_fd_sc_hd__and2_1
*I *450:B I *D sky130_fd_sc_hd__and2_1
*I *448:A I *D sky130_fd_sc_hd__and2_1
*I *675:X O *D sky130_fd_sc_hd__buf_4
*CAP
1 *428:A 3.37551e-05
2 *399:B 0.000676848
3 *435:A 0.000435482
4 *490:B 0
5 *450:B 0
6 *448:A 0.000137764
7 *675:X 7.35196e-05
8 *338:62 0.000769602
9 *338:49 0.000638889
10 *338:40 0.000661023
11 *338:16 0.000865495
12 *338:8 0.00131786
13 *435:A *433:A 1.37669e-05
14 *435:A *433:B 0.000380963
15 *435:A *490:A 6.50727e-05
16 *435:A *700:A 0.000324137
17 *448:A *448:B 0.000101916
18 *448:A *450:A 0.00011818
19 *448:A *349:34 0
20 *338:16 *448:B 0.000259225
21 *338:40 *361:12 0
22 *338:49 *490:A 0.000148666
23 *401:B *338:40 0.000216647
24 *428:B *338:40 0.000257146
25 *435:B *435:A 0.000277488
26 *438:B *338:40 2.71397e-05
27 *495:B *428:A 2.16355e-05
28 *501:B *338:40 0.000273292
29 *521:A *399:B 0.000151726
30 *521:CIN *399:B 2.79471e-05
31 *521:CIN *338:62 0.000149643
32 *525:A *338:16 6.8479e-05
33 *525:B *338:16 9.27042e-05
34 *525:CIN *338:16 5.24884e-06
35 *527:CIN *448:A 1.4106e-05
36 *527:CIN *338:16 0.000609129
37 *534:B *448:A 0
38 *551:B *399:B 0.000134473
39 *552:A *399:B 0
40 *555:B *338:40 0
41 *624:A *338:8 2.47163e-05
42 *624:A *338:40 5.20591e-05
43 *631:A *338:40 0
44 *262:26 *448:A 0.000324151
45 *262:26 *338:16 0.000178236
46 *333:45 *399:B 1.07248e-05
47 *333:45 *338:62 5.79689e-05
48 *337:22 *338:40 0
*RES
1 *675:X *338:8 15.5811 
2 *338:8 *338:16 21.3551 
3 *338:16 *448:A 23.7357 
4 *338:16 *450:B 9.24915 
5 *338:8 *338:40 22.5268 
6 *338:40 *490:B 9.24915 
7 *338:40 *338:49 3.52053 
8 *338:49 *435:A 22.1979 
9 *338:49 *338:62 7.1625 
10 *338:62 *399:B 27.588 
11 *338:62 *428:A 14.4725 
*END

*D_NET *351 0.00261333
*CONN
*I *698:A I *D sky130_fd_sc_hd__buf_6
*I *378:B I *D sky130_fd_sc_hd__and2_4
*I *688:X O *D sky130_fd_sc_hd__buf_6
*CAP
1 *698:A 0.000242531
2 *378:B 0.000168725
3 *688:X 0.000459454
4 *351:8 0.000870711
5 *502:A *378:B 6.27718e-05
6 *504:B *698:A 0
7 *504:B *351:8 0
8 *609:A *351:8 0
9 *619:A *378:B 0.000209636
10 *619:A *351:8 0
11 *12:12 *378:B 0.000599498
*RES
1 *688:X *351:8 24.3014 
2 *351:8 *378:B 21.1519 
3 *351:8 *698:A 18.7989 
*END

*D_NET *352 0.00254037
*CONN
*I *486:B I *D sky130_fd_sc_hd__nor2_1
*I *689:X O *D sky130_fd_sc_hd__buf_6
*CAP
1 *486:B 0.000602062
2 *689:X 0.000602062
3 *486:B *485:C1 0.00040639
4 *374:A1 *486:B 6.50586e-05
5 *374:A2 *486:B 2.65667e-05
6 *374:B1 *486:B 2.61012e-05
7 *416:A1 *486:B 0
8 *635:A *486:B 0.000812132
*RES
1 *689:X *486:B 47.642 
*END

*D_NET *12 0.00829401
*CONN
*I *674:A I *D sky130_fd_sc_hd__buf_4
*I *429:A I *D sky130_fd_sc_hd__and2_4
*I *462:A I *D sky130_fd_sc_hd__and2_1
*I *375:B I *D sky130_fd_sc_hd__and2_1
*I *672:A I *D sky130_fd_sc_hd__buf_4
*I *619:X O *D sky130_fd_sc_hd__buf_6
*CAP
1 *674:A 0.000275277
2 *429:A 5.02803e-05
3 *462:A 0
4 *375:B 0
5 *672:A 0.000188156
6 *619:X 0.000864315
7 *12:51 0.000433706
8 *12:24 0.000477604
9 *12:18 0.00111496
10 *12:12 0.00179797
11 *429:A *236:16 0.000111708
12 *429:A *332:25 2.53249e-05
13 *672:A *529:A 1.4893e-05
14 *672:A *244:14 1.41976e-05
15 *674:A *456:A 3.58044e-05
16 *674:A *504:A 0
17 *674:A *504:CIN 0
18 *674:A *236:16 6.08697e-06
19 *674:A *330:47 0.00011818
20 *674:A *330:58 0.000118166
21 *674:A *332:31 0.000379606
22 *674:A *333:17 0
23 *12:12 *378:B 0.000599498
24 *12:12 *506:A 0.000119871
25 *12:12 *619:A 2.08274e-05
26 *12:12 *220:16 0.000169817
27 *12:12 *236:16 3.87022e-06
28 *12:12 *330:47 2.06701e-05
29 *12:18 *506:CIN 0.000103198
30 *12:18 *508:A 1.83795e-06
31 *12:18 *510:A 5.20546e-06
32 *12:24 *526:CIN 2.84892e-05
33 *12:24 *545:B 0.000182074
34 *12:24 *244:14 0.000207308
35 *12:51 *236:16 4.29946e-05
36 *12:51 *330:47 3.40489e-05
37 *12:51 *332:31 3.31733e-05
38 *685:A *672:A 1.80407e-05
39 *685:A *12:24 0.000134382
40 *6:40 *672:A 0.000206684
41 *9:6 *674:A 0.000313481
42 *11:10 *12:12 2.22974e-05
*RES
1 *619:X *12:12 29.6363 
2 *12:12 *12:18 16.1949 
3 *12:18 *12:24 10.3446 
4 *12:24 *672:A 23.323 
5 *12:24 *375:B 9.24915 
6 *12:18 *462:A 9.24915 
7 *12:12 *12:51 3.07775 
8 *12:51 *429:A 15.6059 
9 *12:51 *674:A 24.6393 
*END

*D_NET *353 0.00953683
*CONN
*I *689:A I *D sky130_fd_sc_hd__buf_6
*I *440:B1 I *D sky130_fd_sc_hd__o221ai_2
*I *690:X O *D sky130_fd_sc_hd__buf_6
*CAP
1 *689:A 0.00026934
2 *440:B1 0.00229812
3 *690:X 0.000511034
4 *353:10 0.00307849
5 P[6] *689:A 0
6 *374:A2 *689:A 0
7 *384:A2 *440:B1 0
8 *385:A2 *353:10 0.000748053
9 *390:C1 *440:B1 0.000180642
10 *440:B2 *440:B1 0.00176389
11 *654:A *689:A 0
12 *690:A *353:10 1.43698e-05
13 *47:16 *353:10 0.000260896
14 *59:19 *689:A 0
15 *59:19 *353:10 0
16 *60:37 *353:10 0.000352567
17 *83:6 *353:10 2.23108e-05
18 *321:14 *689:A 3.7121e-05
*RES
1 *690:X *353:10 29.8198 
2 *353:10 *440:B1 30.0487 
3 *353:10 *689:A 20.3565 
*END

*D_NET *354 0.00286581
*CONN
*I *493:B I *D sky130_fd_sc_hd__nand2_2
*I *481:A3 I *D sky130_fd_sc_hd__a31oi_4
*I *691:X O *D sky130_fd_sc_hd__buf_4
*CAP
1 *493:B 0
2 *481:A3 0.000457808
3 *691:X 0.000261725
4 *354:8 0.000719532
5 *443:B *354:8 0.000315549
6 *466:A *481:A3 0.000136547
7 *480:A1_N *481:A3 0.000214379
8 *482:A *481:A3 0.000144366
9 *493:A *354:8 6.08467e-05
10 *494:B *481:A3 3.93822e-05
11 *494:B *354:8 6.50727e-05
12 *678:A *481:A3 5.04829e-06
13 *21:22 *481:A3 0.000327715
14 *89:14 *354:8 0.000107496
15 *106:28 *481:A3 1.03403e-05
*RES
1 *691:X *354:8 16.6519 
2 *354:8 *481:A3 31.8293 
3 *354:8 *493:B 9.24915 
*END

*D_NET *13 0.00173318
*CONN
*I *430:A I *D sky130_fd_sc_hd__and2_1
*I *673:A I *D sky130_fd_sc_hd__buf_6
*I *620:X O *D sky130_fd_sc_hd__buf_6
*CAP
1 *430:A 0.000275691
2 *673:A 6.15192e-05
3 *620:X 0.000122221
4 *13:8 0.000459432
5 *430:A *611:A 2.57465e-06
6 *430:A *687:A 0
7 *430:A *688:A 6.55124e-05
8 *430:A *332:10 0.000169684
9 *430:A *336:14 2.18888e-05
10 *673:A *14:6 0.000271044
11 *673:A *336:14 0.000115934
12 *13:8 *611:A 8.67149e-05
13 *13:8 *621:A 0
14 *476:B *430:A 0
15 *3:14 *430:A 8.09625e-05
*RES
1 *620:X *13:8 17.2421 
2 *13:8 *673:A 16.691 
3 *13:8 *430:A 21.9815 
*END

*D_NET *357 0.00136569
*CONN
*I *385:A1 I *D sky130_fd_sc_hd__o21a_4
*I *418:A1 I *D sky130_fd_sc_hd__o21a_1
*I *694:X O *D sky130_fd_sc_hd__buf_4
*CAP
1 *385:A1 1.97679e-05
2 *418:A1 0.000192391
3 *694:X 9.12803e-05
4 *357:6 0.000303439
5 *384:A2 *418:A1 1.94614e-05
6 *384:B1 *418:A1 0.000143175
7 *385:A2 *418:A1 6.3657e-05
8 *418:B1 *418:A1 0.000163069
9 *418:B1 *357:6 4.77281e-05
10 *654:A *385:A1 4.65954e-06
11 *654:A *418:A1 4.58907e-05
12 *654:A *357:6 3.95516e-05
13 *47:16 *357:6 0.000166091
14 *92:8 *418:A1 6.55265e-05
*RES
1 *694:X *357:6 12.191 
2 *357:6 *418:A1 24.5769 
3 *357:6 *385:A1 9.82786 
*END

*D_NET *14 0.00325953
*CONN
*I *687:A I *D sky130_fd_sc_hd__buf_6
*I *458:A I *D sky130_fd_sc_hd__and2_4
*I *432:A I *D sky130_fd_sc_hd__and2_1
*I *668:A I *D sky130_fd_sc_hd__buf_4
*I *621:X O *D sky130_fd_sc_hd__buf_8
*CAP
1 *687:A 0.000150848
2 *458:A 0
3 *432:A 0.000195459
4 *668:A 0.000302218
5 *621:X 0
6 *14:8 0.000497677
7 *14:6 0.000564739
8 *14:4 0.000715587
9 *432:A *509:A 3.26322e-05
10 *432:A *671:A 3.44412e-06
11 *668:A *509:A 1.82696e-05
12 *668:A *331:8 4.81015e-05
13 *687:A *620:A 0
14 *687:A *621:A 1.15929e-05
15 *14:6 *330:6 6.22703e-05
16 *14:6 *330:10 1.92336e-05
17 *430:A *687:A 0
18 *458:B *14:6 0.000366415
19 *673:A *14:6 0.000271044
20 *4:12 *668:A 0
21 *5:38 *432:A 0
22 *5:38 *668:A 0
23 *5:51 *432:A 0
*RES
1 *621:X *14:4 9.24915 
2 *14:4 *14:6 15.1431 
3 *14:6 *14:8 4.5 
4 *14:8 *668:A 21.2932 
5 *14:8 *432:A 18.1459 
6 *14:6 *458:A 9.24915 
7 *14:4 *687:A 21.7421 
*END

*D_NET *358 0.00314443
*CONN
*I *418:A2 I *D sky130_fd_sc_hd__o21a_1
*I *695:X O *D sky130_fd_sc_hd__buf_4
*CAP
1 *418:A2 0
2 *695:X 0.00084221
3 *358:16 0.00084221
4 *371:A1 *358:16 0
5 *391:A2 *358:16 9.47181e-05
6 *416:A1 *358:16 0.000124086
7 *473:A1 *358:16 7.34948e-06
8 *473:A2 *358:16 6.08467e-05
9 *473:B1 *358:16 0.000171899
10 *532:A *358:16 4.0752e-05
11 *37:8 *358:16 0.000617019
12 *38:8 *358:16 8.70557e-05
13 *54:8 *358:16 6.08467e-05
14 *54:10 *358:16 2.95757e-05
15 *79:14 *358:16 9.83156e-05
16 *315:16 *358:16 6.75453e-05
*RES
1 *695:X *358:16 46.269 
2 *358:16 *418:A2 13.7491 
*END

*D_NET *359 0.000563549
*CONN
*I *451:A2 I *D sky130_fd_sc_hd__a211oi_2
*I *696:X O *D sky130_fd_sc_hd__buf_4
*CAP
1 *451:A2 0.000205715
2 *696:X 0.000205715
3 *409:A2 *451:A2 2.51064e-05
4 *439:B *451:A2 1.03594e-05
5 *451:A1 *451:A2 8.36429e-06
6 *47:16 *451:A2 4.0508e-05
7 *60:37 *451:A2 6.77815e-05
*RES
1 *696:X *451:A2 32.1569 
*END

*D_NET *360 0.00179551
*CONN
*I *485:A1 I *D sky130_fd_sc_hd__a211oi_2
*I *373:B1 I *D sky130_fd_sc_hd__a211oi_4
*I *697:X O *D sky130_fd_sc_hd__buf_6
*CAP
1 *485:A1 0.00020691
2 *373:B1 8.68188e-05
3 *697:X 8.77952e-05
4 *360:10 0.000381524
5 *371:A2 *373:B1 6.14436e-05
6 *371:A2 *360:10 7.44794e-06
7 *373:C1 *373:B1 7.0179e-06
8 *485:A2 *485:A1 0.000352545
9 *485:A2 *360:10 0.000170592
10 *660:A *360:10 2.16355e-05
11 *56:6 *360:10 6.08467e-05
12 *61:12 *373:B1 0.000168186
13 *61:12 *360:10 0.000182746
*RES
1 *697:X *360:10 17.9655 
2 *360:10 *373:B1 7.993 
3 *360:10 *485:A1 19.464 
*END

*D_NET *15 0.00838105
*CONN
*I *460:A I *D sky130_fd_sc_hd__and2_1
*I *671:A I *D sky130_fd_sc_hd__buf_4
*I *368:B I *D sky130_fd_sc_hd__and2_1
*I *437:A I *D sky130_fd_sc_hd__and2_4
*I *446:A I *D sky130_fd_sc_hd__and2_1
*I *398:A I *D sky130_fd_sc_hd__and2_1
*I *488:A I *D sky130_fd_sc_hd__and2_1
*I *405:B I *D sky130_fd_sc_hd__and2_1
*I *622:X O *D sky130_fd_sc_hd__buf_6
*CAP
1 *460:A 0
2 *671:A 0.000261049
3 *368:B 0
4 *437:A 0
5 *446:A 2.67334e-05
6 *398:A 6.63666e-05
7 *488:A 9.74522e-05
8 *405:B 4.92971e-05
9 *622:X 0.000654155
10 *15:86 0.000642796
11 *15:75 0.000569901
12 *15:62 0.000444154
13 *15:58 0.000626716
14 *15:21 0.00024349
15 *15:8 0.000385673
16 *398:A *488:B 3.13805e-06
17 *398:A *498:B 2.84892e-05
18 *405:B *464:A 0.000209232
19 *405:B *498:A 1.92172e-05
20 *405:B *499:A 0.000258128
21 *446:A *461:A 0.00011818
22 *446:A *244:14 1.84293e-05
23 *488:A *488:B 2.5589e-05
24 *488:A *498:B 1.00766e-05
25 *488:A *498:CIN 1.02267e-05
26 *488:A *329:18 2.16355e-05
27 *671:A *509:A 6.36477e-05
28 *15:8 *500:B 0.000331029
29 *15:8 *500:CIN 1.2693e-05
30 *15:8 *613:A 0
31 *15:8 *217:16 0.000447528
32 *15:8 *329:26 2.33193e-05
33 *15:21 *217:16 0.000115668
34 *15:21 *329:26 5.02273e-05
35 *15:58 *496:A 0.000107496
36 *15:58 *496:B 0.000111722
37 *15:58 *496:CIN 0.000156946
38 *15:58 *612:A 0.000175485
39 *15:58 *223:22 5.41227e-05
40 *15:62 *447:B 0
41 *15:62 *476:A 0
42 *15:62 *496:A 0.000118485
43 *15:62 *16:59 4.72727e-05
44 *15:62 *223:22 0.000254405
45 *15:75 *377:B 5.6562e-05
46 *15:75 *447:B 0
47 *15:75 *514:A 0.0001261
48 *15:75 *16:59 3.5692e-05
49 *15:75 *244:14 7.88219e-05
50 *15:86 *377:B 0.00015985
51 *15:86 *509:B 4.47179e-05
52 *15:86 *513:B 0.000307799
53 *376:B *15:58 0.00016963
54 *377:A *15:86 0.00014853
55 *432:A *671:A 3.44412e-06
56 *437:B *15:75 0.000116652
57 *2:16 *671:A 0.000112361
58 *2:16 *15:86 4.61271e-05
59 *3:23 *671:A 0.000114594
60 *5:8 *15:8 0
*RES
1 *622:X *15:8 23.8862 
2 *15:8 *405:B 16.691 
3 *15:8 *15:21 7.1625 
4 *15:21 *488:A 11.6605 
5 *15:21 *398:A 11.1059 
6 *622:X *15:58 30.8704 
7 *15:58 *15:62 11.315 
8 *15:62 *446:A 15.0271 
9 *15:62 *15:75 11.315 
10 *15:75 *437:A 9.24915 
11 *15:75 *15:86 11.719 
12 *15:86 *368:B 9.24915 
13 *15:86 *671:A 24.7134 
14 *15:58 *460:A 9.24915 
*END

*D_NET *16 0.0116772
*CONN
*I *412:B I *D sky130_fd_sc_hd__and2_1
*I *377:B I *D sky130_fd_sc_hd__and2_4
*I *447:A I *D sky130_fd_sc_hd__and2_1
*I *476:A I *D sky130_fd_sc_hd__and2_4
*I *407:B I *D sky130_fd_sc_hd__and2_1
*I *436:A I *D sky130_fd_sc_hd__and2_1
*I *464:A I *D sky130_fd_sc_hd__and2_1
*I *487:A I *D sky130_fd_sc_hd__and2_1
*I *623:X O *D sky130_fd_sc_hd__buf_6
*CAP
1 *412:B 0.000177096
2 *377:B 0.000261948
3 *447:A 0
4 *476:A 0.000376033
5 *407:B 0
6 *436:A 0
7 *464:A 6.58821e-05
8 *487:A 0.000350369
9 *623:X 0
10 *16:66 0.00046226
11 *16:59 0.000254133
12 *16:55 0.000599949
13 *16:46 0.000881063
14 *16:40 0.00106348
15 *16:25 0.00058227
16 *16:4 0.000691341
17 *377:B *509:B 0.000110458
18 *377:B *513:B 1.44764e-05
19 *377:B *513:CIN 0.000454669
20 *377:B *514:B 5.84419e-05
21 *412:B *427:A 3.48792e-05
22 *412:B *336:40 0.000138334
23 *412:B *347:10 1.03594e-05
24 *412:B *347:14 0.000183809
25 *464:A *498:A 0.000470571
26 *464:A *499:A 0.000115827
27 *476:A *447:B 8.62625e-06
28 *476:A *496:A 2.7961e-05
29 *476:A *496:B 1.61631e-05
30 *487:A *518:B 8.42523e-05
31 *487:A *519:A 0.00031994
32 *487:A *519:CIN 0
33 *487:A *543:B 2.54369e-05
34 *487:A *623:A 0.000414339
35 *16:25 *427:B 5.30345e-05
36 *16:25 *487:B 2.36813e-05
37 *16:25 *498:A 3.31882e-05
38 *16:25 *543:B 5.47561e-05
39 *16:25 *613:A 1.77537e-06
40 *16:25 *615:A 6.50586e-05
41 *16:25 *329:34 4.58003e-05
42 *16:40 *400:B 0
43 *16:40 *405:A 3.70643e-05
44 *16:40 *498:A 0.000219809
45 *16:40 *498:CIN 3.9749e-05
46 *16:46 *498:B 0.000675391
47 *16:46 *498:CIN 6.08467e-05
48 *16:59 *376:A 2.04806e-05
49 *16:59 *461:A 9.2346e-06
50 *16:59 *514:A 0.000129458
51 *16:59 *514:B 2.67514e-05
52 *16:59 *223:22 0.000334994
53 *16:66 *496:A 6.99486e-05
54 *16:66 *500:A 4.31539e-05
55 *16:66 *331:8 0.000127271
56 *376:B *16:59 8.62625e-06
57 *377:A *377:B 6.46815e-05
58 *405:B *464:A 0.000209232
59 *436:B *16:55 0.000308449
60 *5:38 *476:A 0.000436825
61 *6:23 *16:46 2.41827e-05
62 *15:62 *476:A 0
63 *15:62 *16:59 4.72727e-05
64 *15:75 *377:B 5.6562e-05
65 *15:75 *16:59 3.5692e-05
66 *15:86 *377:B 0.00015985
*RES
1 *623:X *16:4 9.24915 
2 *16:4 *487:A 29.9779 
3 *16:4 *16:25 13.0139 
4 *16:25 *464:A 18.9094 
5 *16:25 *16:40 5.64254 
6 *16:40 *16:46 16.7495 
7 *16:46 *436:A 9.24915 
8 *16:46 *16:55 9.10562 
9 *16:55 *16:59 11.7303 
10 *16:59 *407:B 9.24915 
11 *16:59 *16:66 3.49641 
12 *16:66 *476:A 29.1208 
13 *16:66 *447:A 9.24915 
14 *16:55 *377:B 23.8385 
15 *16:40 *412:B 19.3184 
*END

*D_NET *340 0.000930728
*CONN
*I *419:A I *D sky130_fd_sc_hd__nor2_4
*I *677:X O *D sky130_fd_sc_hd__buf_6
*CAP
1 *419:A 0.00032996
2 *677:X 0.00032996
3 *419:A *419:B 6.46815e-05
4 *419:A *649:A 0
5 *420:B *419:A 8.79472e-05
6 *636:A *419:A 0
7 *677:A *419:A 0.00011818
*RES
1 *677:X *419:A 35.8995 
*END

*D_NET *361 0.00427537
*CONN
*I *438:A I *D sky130_fd_sc_hd__and2_1
*I *701:A I *D sky130_fd_sc_hd__buf_6
*I *465:A I *D sky130_fd_sc_hd__and2_4
*I *698:X O *D sky130_fd_sc_hd__buf_6
*CAP
1 *438:A 0
2 *701:A 0.000159211
3 *465:A 6.86992e-05
4 *698:X 0.000825203
5 *361:14 0.000307021
6 *361:12 0.000904314
7 *428:B *465:A 6.23875e-05
8 *428:B *361:14 6.73186e-05
9 *465:B *701:A 1.44611e-05
10 *501:A *701:A 0.000134459
11 *501:B *465:A 7.34948e-06
12 *501:B *361:14 8.41174e-05
13 *504:B *361:12 0.00011359
14 *524:A *701:A 0.000163912
15 *525:A *361:12 0.000314295
16 *544:B *361:12 0.000542423
17 *624:A *361:12 6.618e-05
18 *675:A *361:12 0
19 *9:79 *361:12 2.85274e-05
20 *9:79 *361:14 1.80122e-05
21 *330:73 *701:A 0.000171273
22 *333:17 *701:A 3.61659e-05
23 *337:22 *701:A 0.000186445
24 *338:40 *361:12 0
*RES
1 *698:X *361:12 44.7554 
2 *361:12 *361:14 2.94181 
3 *361:14 *465:A 11.0817 
4 *361:14 *701:A 25.7932 
5 *361:12 *438:A 9.24915 
*END

*D_NET *362 0.00107902
*CONN
*I *688:A I *D sky130_fd_sc_hd__buf_6
*I *699:X O *D sky130_fd_sc_hd__buf_6
*CAP
1 *688:A 0.000369479
2 *699:X 0.000369479
3 *430:A *688:A 6.55124e-05
4 *503:CIN *688:A 6.46815e-05
5 *3:14 *688:A 0.00011813
6 *336:26 *688:A 6.27718e-05
7 *350:12 *688:A 2.89638e-05
*RES
1 *699:X *688:A 36.9848 
*END

*D_NET *356 0.00409898
*CONN
*I *485:C1 I *D sky130_fd_sc_hd__a211oi_2
*I *410:A2 I *D sky130_fd_sc_hd__a211oi_4
*I *693:X O *D sky130_fd_sc_hd__buf_6
*CAP
1 *485:C1 0.000490374
2 *410:A2 0.000661404
3 *693:X 8.90549e-05
4 *356:6 0.00124083
5 *371:B1 *485:C1 9.69716e-06
6 *410:B1 *410:A2 2.23069e-05
7 *411:B1 *410:A2 8.89541e-05
8 *416:A1 *485:C1 8.45196e-05
9 *453:A *410:A2 0
10 *486:A *485:C1 0.000544718
11 *486:B *485:C1 0.00040639
12 *635:A *485:C1 3.3179e-05
13 *659:A *410:A2 0.000269633
14 *695:A *485:C1 4.62129e-05
15 *60:8 *485:C1 0
16 *322:8 *410:A2 4.89251e-05
17 *323:16 *485:C1 6.27782e-05
*RES
1 *693:X *356:6 11.0817 
2 *356:6 *410:A2 24.4163 
3 *356:6 *485:C1 36.5841 
*END

*D_NET *355 0.00123057
*CONN
*I *649:A I *D sky130_fd_sc_hd__buf_6
*I *692:X O *D sky130_fd_sc_hd__buf_4
*CAP
1 *649:A 0.000357514
2 *692:X 0.000357514
3 *411:A1 *649:A 0
4 *419:A *649:A 0
5 *419:B *649:A 0.000348337
6 *420:B *649:A 0
7 *636:A *649:A 4.90264e-05
8 *637:A *649:A 0
9 *692:A *649:A 0.00011818
*RES
1 *692:X *649:A 38.0828 
*END

*D_NET *17 0.000650416
*CONN
*I *624:A I *D sky130_fd_sc_hd__clkdlybuf4s50_1
*I *438:X O *D sky130_fd_sc_hd__and2_1
*CAP
1 *624:A 0.00021514
2 *438:X 0.00021514
3 *624:A *525:A 7.71803e-05
4 *624:A *338:8 2.47163e-05
5 *624:A *338:40 5.20591e-05
6 *624:A *361:12 6.618e-05
*RES
1 *438:X *624:A 33.791 
*END

*D_NET *363 0.00169751
*CONN
*I *422:B I *D sky130_fd_sc_hd__and2_4
*I *433:B I *D sky130_fd_sc_hd__and2_1
*I *700:X O *D sky130_fd_sc_hd__buf_6
*CAP
1 *422:B 0.000236792
2 *433:B 0.000127019
3 *700:X 3.47128e-05
4 *363:6 0.000398524
5 *433:B *700:A 6.27718e-05
6 *363:6 *700:A 0.000112367
7 *433:A *433:B 0.000267394
8 *435:A *433:B 0.000380963
9 *537:A *422:B 1.63652e-05
10 *552:A *422:B 5.297e-05
11 *333:32 *422:B 7.62627e-06
*RES
1 *700:X *363:6 10.5271 
2 *363:6 *433:B 15.1569 
3 *363:6 *422:B 24.6489 
*END

*D_NET *364 0.0022621
*CONN
*I *490:A I *D sky130_fd_sc_hd__and2_1
*I *700:A I *D sky130_fd_sc_hd__buf_6
*I *701:X O *D sky130_fd_sc_hd__buf_6
*CAP
1 *490:A 6.94301e-05
2 *700:A 7.18644e-05
3 *701:X 0.000248408
4 *364:10 0.000389702
5 *433:B *700:A 6.27718e-05
6 *435:A *490:A 6.50727e-05
7 *435:A *700:A 0.000324137
8 *521:CIN *364:10 0.000267791
9 *333:17 *364:10 6.42436e-05
10 *333:32 *364:10 0.00017046
11 *333:45 *364:10 0.000220524
12 *337:22 *364:10 4.6662e-05
13 *338:49 *490:A 0.000148666
14 *363:6 *700:A 0.000112367
*RES
1 *701:X *364:10 28.3862 
2 *364:10 *700:A 12.7456 
3 *364:10 *490:A 11.6364 
*END

*D_NET *18 0.000627056
*CONN
*I *625:A I *D sky130_fd_sc_hd__buf_2
*I *475:Y O *D sky130_fd_sc_hd__xnor2_1
*CAP
1 *625:A 0.00021011
2 *475:Y 0.00021011
3 *625:A P[10] 2.44829e-05
4 *625:A *391:A3 0.000125876
5 *625:A *466:C 5.64771e-05
*RES
1 *475:Y *625:A 33.242 
*END

*D_NET *19 0.00118087
*CONN
*I *626:A I *D sky130_fd_sc_hd__buf_2
*I *494:Y O *D sky130_fd_sc_hd__xnor2_1
*CAP
1 *626:A 0.000571048
2 *494:Y 0.000571048
3 *626:A *480:B1 5.03013e-06
4 *626:A *494:B 2.58757e-05
5 *626:A *63:40 5.04829e-06
6 *626:A *106:28 2.8182e-06
*RES
1 *494:Y *626:A 28.6741 
*END

*D_NET *2 0.00323041
*CONN
*I *670:A I *D sky130_fd_sc_hd__buf_6
*I *368:A I *D sky130_fd_sc_hd__and2_1
*I *377:A I *D sky130_fd_sc_hd__and2_4
*I *609:X O *D sky130_fd_sc_hd__buf_2
*CAP
1 *670:A 3.6352e-05
2 *368:A 0
3 *377:A 0.000147487
4 *609:X 0.000535525
5 *2:16 0.000527952
6 *2:6 0.000952342
7 *377:A *377:B 6.46815e-05
8 *377:A *513:CIN 2.58616e-05
9 *377:A *15:86 0.00014853
10 *2:6 *366:A 2.20471e-05
11 *2:6 *378:A 0.000112361
12 *2:6 *507:B 2.84892e-05
13 *2:6 *350:12 0.000243997
14 *2:16 *457:B 2.16355e-05
15 *2:16 *507:B 1.58551e-05
16 *2:16 *671:A 0.000112361
17 *2:16 *15:86 4.61271e-05
18 *2:16 *330:32 0.000134006
19 *2:16 *336:26 5.47957e-05
*RES
1 *609:X *2:6 17.737 
2 *2:6 *2:16 18.1007 
3 *2:16 *377:A 13.8548 
4 *2:16 *368:A 9.24915 
5 *2:6 *670:A 10.2378 
*END

*D_NET *20 0.0012151
*CONN
*I *627:A I *D sky130_fd_sc_hd__buf_2
*I *492:X O *D sky130_fd_sc_hd__xor2_1
*CAP
1 *627:A 0.000354428
2 *492:X 0.000354428
3 *627:A *49:10 0.000174205
4 *627:A *91:14 0.000174205
5 *627:A *309:10 0.000157832
*RES
1 *492:X *627:A 37.4242 
*END

*D_NET *21 0.0038137
*CONN
*I *628:A I *D sky130_fd_sc_hd__buf_2
*I *482:X O *D sky130_fd_sc_hd__xor2_1
*CAP
1 *628:A 0
2 *482:X 0.000918252
3 *21:22 0.000918252
4 *21:22 *466:B 7.86847e-05
5 *21:22 *466:C 5.05252e-05
6 *21:22 *478:B 0.00011818
7 *21:22 *480:A1_N 1.79484e-05
8 *21:22 *480:B1 0.000193425
9 *21:22 *481:A3 0.000327715
10 *21:22 *482:A 0
11 *21:22 *491:B1_N 3.46206e-05
12 *21:22 *494:B 0.000588088
13 *21:22 *678:A 0.000103531
14 *21:22 *63:40 0.000464475
15 *21:22 *105:10 0
*RES
1 *482:X *21:22 45.082 
2 *21:22 *628:A 9.24915 
*END

*D_NET *22 0.0012814
*CONN
*I *629:A I *D sky130_fd_sc_hd__buf_2
*I *396:Y O *D sky130_fd_sc_hd__xnor2_1
*CAP
1 *629:A 0.000625523
2 *396:Y 0.000625523
3 *629:A P[14] 2.91831e-05
4 *629:A *657:A 1.17541e-06
5 *629:A *63:40 0
*RES
1 *396:Y *629:A 37.1242 
*END

*D_NET *23 0.0021394
*CONN
*I *630:A I *D sky130_fd_sc_hd__buf_2
*I *445:X O *D sky130_fd_sc_hd__xor2_1
*CAP
1 *630:A 0.000683653
2 *445:X 0.000683653
3 *630:A P[15] 3.14978e-05
4 *630:A *445:B 0.000740601
5 *630:A *535:A 0
6 *630:A *549:B 0
7 *630:A *253:14 0
*RES
1 *445:X *630:A 46.5595 
*END

*D_NET *24 0.000436873
*CONN
*I *631:A I *D sky130_fd_sc_hd__clkdlybuf4s50_1
*I *555:SUM O *D sky130_fd_sc_hd__ha_1
*CAP
1 *631:A 0.00015285
2 *555:SUM 0.00015285
3 *631:A *428:B 0
4 *631:A *555:A 7.57931e-05
5 *631:A *555:B 5.53789e-05
6 *631:A *338:40 0
*RES
1 *555:SUM *631:A 31.0235 
*END

*D_NET *25 0.000918437
*CONN
*I *632:A I *D sky130_fd_sc_hd__dlymetal6s2s_1
*I *495:SUM O *D sky130_fd_sc_hd__fa_1
*CAP
1 *632:A 0.000247538
2 *495:SUM 0.000247538
3 *632:A P[2] 0.000383501
4 *632:A *435:B 0
5 *632:A *534:B 3.98606e-05
*RES
1 *495:SUM *632:A 34.7664 
*END

*D_NET *26 0.000289983
*CONN
*I *633:A I *D sky130_fd_sc_hd__buf_2
*I *369:X O *D sky130_fd_sc_hd__xor2_1
*CAP
1 *633:A 4.58613e-05
2 *369:X 4.58613e-05
3 *633:A *48:16 0.000113968
4 *633:A *57:20 6.50586e-05
5 *633:A *59:6 1.92336e-05
*RES
1 *369:X *633:A 20.355 
*END

*D_NET *27 0.000677217
*CONN
*I *634:A I *D sky130_fd_sc_hd__buf_2
*I *374:Y O *D sky130_fd_sc_hd__a21oi_2
*CAP
1 *634:A 0.000172298
2 *374:Y 0.000172298
3 *634:A *374:A1 7.44269e-05
4 *634:A *635:A 4.44689e-05
5 *634:A *653:A 0.000213725
*RES
1 *374:Y *634:A 32.9632 
*END

*D_NET *28 0.00220635
*CONN
*I *635:A I *D sky130_fd_sc_hd__buf_2
*I *486:Y O *D sky130_fd_sc_hd__nor2_1
*CAP
1 *635:A 0.000415766
2 *486:Y 0.000415766
3 *635:A *374:A1 0
4 *635:A *374:B1 4.31703e-05
5 *635:A *385:A2 0.000173804
6 *635:A *485:C1 3.3179e-05
7 *635:A *486:B 0.000812132
8 *635:A *47:6 9.44631e-06
9 *635:A *60:8 1.37421e-05
10 *635:A *60:37 9.3134e-05
11 *635:A *316:8 0.000151741
12 *634:A *635:A 4.44689e-05
*RES
1 *486:Y *635:A 44.2045 
*END

*D_NET *29 0.00111217
*CONN
*I *636:A I *D sky130_fd_sc_hd__buf_2
*I *411:Y O *D sky130_fd_sc_hd__a21oi_2
*CAP
1 *636:A 0.00018674
2 *411:Y 0.00018674
3 *636:A *419:A 0
4 *636:A *420:A 0
5 *636:A *420:B 0.000377273
6 *636:A *637:A 2.41274e-06
7 *636:A *649:A 4.90264e-05
8 *636:A *692:A 0.000309978
*RES
1 *411:Y *636:A 35.2058 
*END

*D_NET *3 0.00500412
*CONN
*I *437:B I *D sky130_fd_sc_hd__and2_4
*I *436:B I *D sky130_fd_sc_hd__and2_1
*I *432:B I *D sky130_fd_sc_hd__and2_1
*I *669:A I *D sky130_fd_sc_hd__buf_6
*I *610:X O *D sky130_fd_sc_hd__buf_6
*CAP
1 *437:B 7.14589e-05
2 *436:B 0.000214525
3 *432:B 2.12792e-05
4 *669:A 0
5 *610:X 0.000347369
6 *3:34 0.000990599
7 *3:23 0.00106094
8 *3:14 0.000682413
9 *436:B *514:A 2.16355e-05
10 *436:B *16:55 0.000308449
11 *436:B *223:22 8.17887e-05
12 *437:B *15:75 0.000116652
13 *437:B *244:14 0.000138468
14 *3:14 *430:A 8.09625e-05
15 *3:14 *688:A 0.00011813
16 *3:14 *332:10 0.000111352
17 *3:23 *397:A 0.000159038
18 *3:23 *503:A 2.58616e-05
19 *3:23 *506:A 0.000134263
20 *3:23 *509:A 4.60884e-05
21 *3:23 *671:A 0.000114594
22 *3:34 *509:A 4.58959e-05
23 *397:B *3:23 0.000112361
*RES
1 *610:X *3:14 28.1804 
2 *3:14 *669:A 9.24915 
3 *3:14 *3:23 10.7304 
4 *3:23 *432:B 9.82786 
5 *3:23 *3:34 10.5857 
6 *3:34 *436:B 15.8079 
7 *3:34 *437:B 20.9116 
*END

*D_NET *30 0.00136989
*CONN
*I *637:A I *D sky130_fd_sc_hd__buf_2
*I *420:Y O *D sky130_fd_sc_hd__xnor2_1
*CAP
1 *637:A 0.000582493
2 *420:Y 0.000582493
3 *637:A *411:A1 0
4 *637:A *411:A2 0.00015637
5 *637:A *420:A 1.79672e-05
6 *637:A *420:B 2.81584e-05
7 *637:A *649:A 0
8 *636:A *637:A 2.41274e-06
*RES
1 *420:Y *637:A 40.4406 
*END

*D_NET *31 0.000984647
*CONN
*I *638:A I *D sky130_fd_sc_hd__buf_2
*I *455:Y O *D sky130_fd_sc_hd__xnor2_1
*CAP
1 *638:A 0.000378291
2 *455:Y 0.000378291
3 *638:A *452:A2 1.65872e-05
4 *638:A *455:B 0.000211478
*RES
1 *455:Y *638:A 27.4202 
*END

*D_NET *32 0.00113178
*CONN
*I *639:A I *D sky130_fd_sc_hd__buf_2
*I *470:X O *D sky130_fd_sc_hd__xor2_1
*CAP
1 *639:A 0.000424338
2 *470:X 0.000424338
3 *639:A *466:C 7.97809e-05
4 *639:A *470:B 0.000142478
5 *639:A *304:34 6.08467e-05
*RES
1 *470:X *639:A 29.1322 
*END

*D_NET *4 0.00251343
*CONN
*I *667:A I *D sky130_fd_sc_hd__buf_4
*I *458:B I *D sky130_fd_sc_hd__and2_4
*I *611:X O *D sky130_fd_sc_hd__buf_6
*CAP
1 *667:A 0
2 *458:B 4.78467e-05
3 *611:X 0.000466516
4 *4:12 0.000514363
5 *458:B *14:6 0.000366415
6 *458:B *330:6 4.81452e-05
7 *458:B *330:10 0.00031827
8 *4:12 *509:A 0
9 *4:12 *668:A 0
10 *4:12 *220:16 0.000480836
11 *476:B *4:12 0.000271044
*RES
1 *611:X *4:12 32.8581 
2 *4:12 *458:B 13.3002 
3 *4:12 *667:A 9.24915 
*END

*D_NET *5 0.00710272
*CONN
*I *686:A I *D sky130_fd_sc_hd__buf_4
*I *463:B I *D sky130_fd_sc_hd__and2_1
*I *461:B I *D sky130_fd_sc_hd__and2_1
*I *460:B I *D sky130_fd_sc_hd__and2_1
*I *464:B I *D sky130_fd_sc_hd__and2_1
*I *612:X O *D sky130_fd_sc_hd__clkbuf_2
*CAP
1 *686:A 0.00050637
2 *463:B 3.96833e-05
3 *461:B 2.19858e-05
4 *460:B 0
5 *464:B 0.000371893
6 *612:X 0.000158332
7 *5:51 0.000911743
8 *5:38 0.000849141
9 *5:27 0.00101223
10 *5:8 0.00108099
11 *461:B *330:10 6.50586e-05
12 *463:B *336:28 0.000112361
13 *464:B *376:A 0
14 *464:B *461:A 0
15 *464:B *498:A 4.58003e-05
16 *464:B *499:A 0.00016233
17 *464:B *514:CIN 1.82696e-05
18 *464:B *516:A 3.8122e-05
19 *464:B *6:10 6.80864e-05
20 *464:B *223:22 0
21 *686:A *462:B 0.000154145
22 *686:A *506:B 0.000151018
23 *686:A *510:A 0.000112185
24 *686:A *510:B 0
25 *686:A *510:CIN 7.20759e-05
26 *686:A *512:CIN 7.40084e-05
27 *686:A *528:CIN 1.03403e-05
28 *686:A *11:10 5.04829e-06
29 *686:A *336:28 0.000256307
30 *686:A *349:23 2.77625e-06
31 *5:8 *376:A 0
32 *5:8 *496:CIN 0
33 *5:8 *500:A 0
34 *5:8 *15:8 0
35 *5:8 *217:16 0
36 *5:27 *496:A 7.64506e-05
37 *5:27 *496:B 1.16199e-05
38 *5:38 *432:A 0
39 *5:38 *447:B 0
40 *5:38 *476:A 0.000436825
41 *5:38 *496:B 4.82966e-05
42 *5:38 *668:A 0
43 *5:51 *432:A 0
44 *5:51 *509:CIN 9.63354e-05
45 *5:51 *510:CIN 8.57449e-05
46 *5:51 *513:CIN 4.71447e-05
*RES
1 *612:X *5:8 17.6574 
2 *5:8 *464:B 23.9701 
3 *5:8 *5:27 12.8673 
4 *5:27 *460:B 9.24915 
5 *5:27 *5:38 17.0299 
6 *5:38 *461:B 14.4725 
7 *5:38 *5:51 14.2218 
8 *5:51 *463:B 10.5271 
9 *5:51 *686:A 34.4521 
*END

*D_NET *6 0.00584643
*CONN
*I *376:B I *D sky130_fd_sc_hd__and2_1
*I *407:A I *D sky130_fd_sc_hd__and2_1
*I *685:A I *D sky130_fd_sc_hd__buf_4
*I *375:A I *D sky130_fd_sc_hd__and2_1
*I *413:B I *D sky130_fd_sc_hd__and2_1
*I *398:B I *D sky130_fd_sc_hd__and2_1
*I *613:X O *D sky130_fd_sc_hd__clkbuf_2
*CAP
1 *376:B 0.00020812
2 *407:A 0
3 *685:A 0.00021974
4 *375:A 0
5 *413:B 5.89297e-05
6 *398:B 0
7 *613:X 0.000271092
8 *6:67 0.00030009
9 *6:40 0.000775543
10 *6:23 0.00102027
11 *6:10 0.000584655
12 *376:B *376:A 0.000351993
13 *376:B *500:A 1.65872e-05
14 *376:B *15:58 0.00016963
15 *376:B *16:59 8.62625e-06
16 *376:B *223:22 7.52053e-05
17 *376:B *331:8 1.65872e-05
18 *376:B *331:12 5.04829e-06
19 *413:B *413:A 1.05106e-05
20 *413:B *336:32 2.99287e-05
21 *413:B *336:40 2.99287e-05
22 *685:A *511:A 6.64392e-05
23 *685:A *512:B 0.000162858
24 *685:A *529:A 0.000154639
25 *685:A *529:B 6.36477e-05
26 *685:A *672:A 1.80407e-05
27 *685:A *8:23 1.20147e-05
28 *685:A *12:24 0.000134382
29 *6:10 *499:A 0.000169093
30 *6:10 *514:CIN 0
31 *6:10 *217:16 1.96679e-05
32 *6:23 *498:B 4.89392e-05
33 *6:23 *514:CIN 6.00269e-05
34 *6:23 *16:46 2.41827e-05
35 *6:40 *529:A 5.04829e-06
36 *6:40 *529:B 2.76455e-05
37 *6:40 *672:A 0.000206684
38 *6:40 *7:10 0
39 *6:40 *7:23 0
40 *6:40 *335:14 0
41 *6:67 *500:A 0.000223413
42 *6:67 *331:12 0.000229142
43 *464:B *6:10 6.80864e-05
*RES
1 *613:X *6:10 23.8184 
2 *6:10 *398:B 9.24915 
3 *6:10 *6:23 14.8503 
4 *6:23 *413:B 15.6059 
5 *6:23 *6:40 18.2672 
6 *6:40 *375:A 9.24915 
7 *6:40 *685:A 26.3666 
8 *613:X *6:67 14.964 
9 *6:67 *407:A 9.24915 
10 *6:67 *376:B 26.511 
*END

*D_NET *7 0.00545915
*CONN
*I *402:A I *D sky130_fd_sc_hd__and2_1
*I *414:A I *D sky130_fd_sc_hd__and2_1
*I *365:A I *D sky130_fd_sc_hd__and2_1
*I *684:A I *D sky130_fd_sc_hd__buf_4
*I *614:X O *D sky130_fd_sc_hd__dlygate4sd2_1
*CAP
1 *402:A 0.00010145
2 *414:A 0
3 *365:A 0
4 *684:A 0.000137231
5 *614:X 0.000264166
6 *7:40 0.000963773
7 *7:23 0.00140536
8 *7:10 0.000944434
9 *402:A *414:B 0.000111708
10 *402:A *508:CIN 4.58003e-05
11 *402:A *526:A 6.50586e-05
12 *402:A *9:12 2.61147e-05
13 *402:A *266:22 1.41853e-05
14 *684:A *347:8 0.000115934
15 *7:10 *8:12 0
16 *7:10 *336:40 4.50801e-05
17 *7:23 *365:B 0.000110815
18 *7:23 *424:A 0.000119292
19 *7:23 *424:B 0.000186438
20 *7:23 *425:A 0
21 *7:23 *515:CIN 0
22 *7:23 *529:CIN 8.68212e-05
23 *7:23 *530:CIN 2.12721e-05
24 *7:23 *536:B 8.42523e-05
25 *7:23 *8:12 0
26 *7:40 *365:B 1.07248e-05
27 *7:40 *526:A 0.000277704
28 *7:40 *536:B 4.43395e-05
29 *7:40 *554:A 0.000224395
30 *7:40 *554:B 1.99642e-05
31 *7:40 *266:22 3.28424e-05
32 *6:40 *7:10 0
33 *6:40 *7:23 0
*RES
1 *614:X *7:10 18.7989 
2 *7:10 *684:A 17.2456 
3 *7:10 *7:23 17.0986 
4 *7:23 *365:A 13.7491 
5 *7:23 *7:40 21.2446 
6 *7:40 *414:A 9.24915 
7 *7:40 *402:A 12.7456 
*END

*D_NET *303 0.00340605
*CONN
*I *391:A1 I *D sky130_fd_sc_hd__a31oi_2
*I *640:X O *D sky130_fd_sc_hd__buf_4
*CAP
1 *391:A1 0
2 *640:X 0.000775143
3 *303:22 0.000775143
4 *303:22 *308:14 0.000206095
5 *382:A *303:22 0
6 *390:B1 *303:22 0.000286664
7 *391:A2 *303:22 1.65872e-05
8 *444:B2 *303:22 0.000110297
9 *640:A *303:22 0.000760906
10 *644:A *303:22 2.18698e-05
11 *647:A *303:22 0
12 *55:16 *303:22 2.74378e-05
13 *56:10 *303:22 0.000218638
14 *73:22 *303:22 0.000207266
*RES
1 *640:X *303:22 43.513 
2 *303:22 *391:A1 9.24915 
*END

*D_NET *341 0.00068068
*CONN
*I *494:A I *D sky130_fd_sc_hd__xnor2_1
*I *678:X O *D sky130_fd_sc_hd__buf_4
*CAP
1 *494:A 0.000122698
2 *678:X 0.000122698
3 *494:A *678:A 1.76639e-05
4 *480:B1 *494:A 0.000164255
5 *106:28 *494:A 0.000253365
*RES
1 *678:X *494:A 32.4328 
*END

*D_NET *342 0.00120051
*CONN
*I *491:A1 I *D sky130_fd_sc_hd__o21bai_1
*I *678:A I *D sky130_fd_sc_hd__buf_4
*I *679:X O *D sky130_fd_sc_hd__buf_4
*CAP
1 *491:A1 0
2 *678:A 0.00030263
3 *679:X 6.17776e-05
4 *342:8 0.000364407
5 *678:A *481:A3 5.04829e-06
6 *396:B *342:8 0.000156076
7 *480:A1_N *678:A 0.000107643
8 *491:A2 *342:8 6.67195e-05
9 *494:A *678:A 1.76639e-05
10 *21:22 *678:A 0.000103531
11 *105:10 *678:A 1.03594e-05
12 *106:28 *678:A 4.65113e-06
*RES
1 *679:X *342:8 11.6605 
2 *342:8 *678:A 24.4268 
3 *342:8 *491:A1 9.24915 
*END

*D_NET *305 0.00250752
*CONN
*I *444:A1 I *D sky130_fd_sc_hd__a221oi_4
*I *642:X O *D sky130_fd_sc_hd__buf_4
*CAP
1 *444:A1 0.000536573
2 *642:X 0.000536573
3 *444:A1 *344:16 0.000399536
4 *383:B *444:A1 7.6767e-05
5 *442:A2 *444:A1 0.000634973
6 *64:8 *444:A1 1.03403e-05
7 *88:12 *444:A1 0.000143718
8 *89:14 *444:A1 0.000169041
*RES
1 *642:X *444:A1 46.5892 
*END

*D_NET *306 0.000603543
*CONN
*I *395:A1 I *D sky130_fd_sc_hd__o21ai_2
*I *643:X O *D sky130_fd_sc_hd__buf_4
*CAP
1 *395:A1 0.000112422
2 *643:X 0.000112422
3 *395:A1 *318:30 0.000169718
4 *481:A1 *395:A1 1.37566e-05
5 *49:10 *395:A1 0.00011818
6 *50:10 *395:A1 1.19856e-05
7 *75:14 *395:A1 6.50586e-05
8 *77:21 *395:A1 0
*RES
1 *643:X *395:A1 31.854 
*END

*D_NET *307 0.00421708
*CONN
*I *467:A I *D sky130_fd_sc_hd__nor2_1
*I *387:A I *D sky130_fd_sc_hd__nand3_1
*I *455:B I *D sky130_fd_sc_hd__xnor2_1
*I *644:X O *D sky130_fd_sc_hd__buf_4
*CAP
1 *467:A 0
2 *387:A 9.0144e-05
3 *455:B 0.000344566
4 *644:X 0.000567599
5 *307:35 0.000106768
6 *307:18 0.000928789
7 *387:A *388:C 0.000276957
8 *387:A *308:33 1.15639e-05
9 *455:B *388:C 7.66391e-06
10 *455:B *452:A2 6.08467e-05
11 *455:B *466:B 7.74044e-06
12 *455:B *466:C 0.000205659
13 *455:B *469:A3 0.000118485
14 *455:B *308:33 1.65872e-05
15 *455:B *315:34 0.000186015
16 *307:18 *388:B 2.16608e-05
17 *391:A3 *455:B 5.35029e-05
18 *455:A *455:B 6.50727e-05
19 *470:A *455:B 3.70431e-05
20 *638:A *455:B 0.000211478
21 *640:A *307:18 3.24397e-05
22 *644:A *307:18 0.000109427
23 *651:A *307:18 1.17247e-06
24 *97:8 *455:B 0.000107496
25 *304:14 *307:18 0.000209814
26 *304:24 *387:A 1.65872e-05
27 *304:24 *307:18 0.000206552
28 *304:34 *387:A 6.13051e-05
29 *304:34 *307:18 0.000154145
*RES
1 *644:X *307:18 29.0939 
2 *307:18 *455:B 30.1173 
3 *307:18 *307:35 0.578717 
4 *307:35 *387:A 13.3484 
5 *307:35 *467:A 9.24915 
*END

*D_NET *308 0.00785888
*CONN
*I *472:B I *D sky130_fd_sc_hd__nor2_1
*I *388:C I *D sky130_fd_sc_hd__nand3_1
*I *467:B I *D sky130_fd_sc_hd__nor2_1
*I *466:C I *D sky130_fd_sc_hd__nor3_2
*I *469:A2 I *D sky130_fd_sc_hd__o41a_1
*I *645:X O *D sky130_fd_sc_hd__buf_4
*CAP
1 *472:B 0.000198022
2 *388:C 0.000191671
3 *467:B 0
4 *466:C 0.000388695
5 *469:A2 0.000243337
6 *645:X 0.000520784
7 *308:33 0.00041644
8 *308:29 0.000351486
9 *308:16 0.00065108
10 *308:14 0.000994478
11 *466:C *466:A 0
12 *466:C *466:B 0.000175933
13 *469:A2 *314:10 2.16355e-05
14 *472:B *315:16 0
15 *472:B *315:26 2.33103e-06
16 *308:14 *388:B 0.000455763
17 *308:16 *314:10 6.24819e-05
18 *308:29 *466:A 0.00022572
19 *308:29 *475:A 8.41833e-05
20 *308:29 *314:37 3.31733e-05
21 *308:29 *343:35 1.28364e-05
22 *382:A *308:14 0
23 *386:A1 *472:B 6.79599e-05
24 *387:A *388:C 0.000276957
25 *387:A *308:33 1.15639e-05
26 *391:A3 *466:C 3.74672e-05
27 *455:B *388:C 7.66391e-06
28 *455:B *466:C 0.000205659
29 *455:B *308:33 1.65872e-05
30 *468:A *469:A2 2.77625e-06
31 *468:B *469:A2 7.92757e-06
32 *469:B1 *469:A2 5.97411e-05
33 *471:B_N *466:C 0.00013832
34 *473:B1 *472:B 6.3657e-05
35 *474:A2 *472:B 0.000258002
36 *625:A *466:C 5.64771e-05
37 *639:A *466:C 7.97809e-05
38 *644:A *308:14 6.27718e-05
39 *645:A *308:14 6.27718e-05
40 *651:A *472:B 0.000101133
41 *21:22 *466:C 5.05252e-05
42 *38:8 *472:B 6.3657e-05
43 *38:16 *472:B 7.36804e-06
44 *38:23 *472:B 9.7112e-06
45 *55:16 *472:B 0
46 *69:14 *308:29 0
47 *70:18 *388:C 6.08467e-05
48 *79:14 *308:14 0.00038834
49 *79:14 *308:16 0.000251669
50 *79:14 *308:29 9.34396e-06
51 *303:22 *308:14 0.000206095
52 *304:14 *388:C 7.62098e-06
53 *304:14 *308:14 7.30318e-05
54 *304:24 *388:C 4.16887e-05
55 *304:34 *388:C 0.000109421
56 *304:34 *466:C 1.34424e-05
57 *304:34 *308:33 1.88563e-05
*RES
1 *645:X *308:14 31.9232 
2 *308:14 *308:16 4.60562 
3 *308:16 *469:A2 12.7456 
4 *308:16 *308:29 13.7388 
5 *308:29 *308:33 1.30211 
6 *308:33 *466:C 31.8406 
7 *308:33 *467:B 9.24915 
8 *308:29 *388:C 15.4221 
9 *308:14 *472:B 24.5418 
*END

*D_NET *309 0.00196001
*CONN
*I *491:B1_N I *D sky130_fd_sc_hd__o21bai_1
*I *478:B I *D sky130_fd_sc_hd__nor2_1
*I *646:X O *D sky130_fd_sc_hd__buf_4
*CAP
1 *491:B1_N 0.000104631
2 *478:B 0.000273364
3 *646:X 0.000328753
4 *309:10 0.000706748
5 *478:B *480:B1 2.65345e-05
6 *491:B1_N *480:B1 7.73661e-05
7 P[11] *491:B1_N 0
8 P[12] *309:10 6.1096e-05
9 P[13] *309:10 0
10 *492:B *478:B 7.92757e-06
11 *627:A *309:10 0.000157832
12 *21:22 *478:B 0.00011818
13 *21:22 *491:B1_N 3.46206e-05
14 *49:10 *478:B 1.82679e-05
15 *63:40 *491:B1_N 4.3116e-06
16 *63:40 *309:10 4.03798e-05
*RES
1 *646:X *309:10 21.9871 
2 *309:10 *478:B 19.4881 
3 *309:10 *491:B1_N 16.8269 
*END

*D_NET *304 0.00498294
*CONN
*I *388:A I *D sky130_fd_sc_hd__nand3_1
*I *387:B I *D sky130_fd_sc_hd__nand3_1
*I *471:B_N I *D sky130_fd_sc_hd__nor2b_1
*I *470:B I *D sky130_fd_sc_hd__xor2_1
*I *641:X O *D sky130_fd_sc_hd__buf_4
*CAP
1 *388:A 1.16585e-05
2 *387:B 0
3 *471:B_N 9.12935e-05
4 *470:B 0.000181653
5 *641:X 0.000722094
6 *304:34 0.00058512
7 *304:24 0.000428995
8 *304:14 0.000850574
9 *471:B_N *466:C 0.00013832
10 *304:14 *388:B 2.12601e-05
11 *304:14 *388:C 7.62098e-06
12 *304:14 *307:18 0.000209814
13 *304:14 *308:14 7.30318e-05
14 *304:24 *387:A 1.65872e-05
15 *304:24 *388:B 3.12128e-05
16 *304:24 *388:C 4.16887e-05
17 *304:24 *307:18 0.000206552
18 *304:34 *387:A 6.13051e-05
19 *304:34 *387:C 3.20264e-05
20 *304:34 *388:C 0.000109421
21 *304:34 *466:C 1.34424e-05
22 *304:34 *475:A 9.43419e-05
23 *304:34 *307:18 0.000154145
24 *304:34 *308:33 1.88563e-05
25 *381:A *304:14 3.31733e-05
26 *390:B1 *304:14 0.000258819
27 *391:A3 *471:B_N 0.000134976
28 *475:B *471:B_N 6.08467e-05
29 *539:B *304:14 0
30 *639:A *470:B 0.000142478
31 *639:A *304:34 6.08467e-05
32 *644:A *304:14 1.88422e-05
33 *645:A *304:14 2.58616e-05
34 *46:18 *304:14 0.000117421
35 *69:14 *304:34 2.02993e-05
36 *70:18 *304:34 8.36586e-06
*RES
1 *641:X *304:14 37.0431 
2 *304:14 *304:24 4.99143 
3 *304:24 *304:34 16.161 
4 *304:34 *470:B 12.625 
5 *304:34 *471:B_N 21.635 
6 *304:24 *387:B 9.24915 
7 *304:14 *388:A 9.82786 
*END

*D_NET *8 0.00675645
*CONN
*I *489:B I *D sky130_fd_sc_hd__and2_1
*I *483:B I *D sky130_fd_sc_hd__and2_1
*I *666:A I *D sky130_fd_sc_hd__buf_4
*I *615:X O *D sky130_fd_sc_hd__dlymetal6s2s_1
*CAP
1 *489:B 0.000365771
2 *483:B 6.62067e-05
3 *666:A 0
4 *615:X 0.000915869
5 *8:23 0.00129416
6 *8:12 0.00177805
7 *483:B *483:A 5.52748e-05
8 *483:B *511:CIN 4.99786e-05
9 *489:B *489:A 5.31465e-05
10 *489:B *512:A 3.20069e-06
11 *489:B *512:B 7.58217e-06
12 *489:B *526:B 0
13 *489:B *526:CIN 2.59895e-05
14 *489:B *527:B 0
15 *489:B *536:A 0
16 *489:B *348:12 0
17 *8:12 *400:B 0.00028846
18 *8:12 *425:A 6.81008e-05
19 *8:12 *543:B 0.000349736
20 *8:12 *329:10 4.3116e-06
21 *8:12 *329:18 0.000148252
22 *8:12 *329:26 0.000308373
23 *8:12 *329:34 1.15389e-05
24 *8:12 *331:12 6.50727e-05
25 *8:23 *424:B 0.000152878
26 *8:23 *511:A 0.00013328
27 *8:23 *512:A 9.22013e-06
28 *8:23 *512:B 9.33914e-05
29 *8:23 *529:A 0.000277001
30 *8:23 *529:B 0
31 *8:23 *244:14 0
32 *8:23 *329:10 0.000171288
33 *8:23 *335:14 4.82966e-05
34 *685:A *8:23 1.20147e-05
35 *7:10 *8:12 0
36 *7:23 *8:12 0
*RES
1 *615:X *8:12 41.9894 
2 *8:12 *666:A 9.24915 
3 *8:12 *8:23 28.1107 
4 *8:23 *483:B 16.1364 
5 *8:23 *489:B 22.5602 
*END

*D_NET *310 0.00204009
*CONN
*I *474:B1 I *D sky130_fd_sc_hd__a21oi_2
*I *647:X O *D sky130_fd_sc_hd__buf_4
*CAP
1 *474:B1 0.000839562
2 *647:X 0.000839562
3 *474:B1 *343:10 5.99051e-05
4 *382:A *474:B1 1.41181e-05
5 *389:A2 *474:B1 3.31733e-05
6 *441:A2 *474:B1 7.73683e-05
7 *441:B1 *474:B1 2.16355e-05
8 *645:A *474:B1 5.37077e-05
9 *680:A *474:B1 0
10 *51:6 *474:B1 2.16355e-05
11 *52:14 *474:B1 2.64785e-05
12 *88:12 *474:B1 5.29413e-05
*RES
1 *647:X *474:B1 42.7567 
*END

*D_NET *343 0.00738119
*CONN
*I *387:C I *D sky130_fd_sc_hd__nand3_1
*I *475:A I *D sky130_fd_sc_hd__xnor2_1
*I *388:B I *D sky130_fd_sc_hd__nand3_1
*I *680:X O *D sky130_fd_sc_hd__buf_4
*CAP
1 *387:C 2.54481e-05
2 *475:A 0.000465717
3 *388:B 0.000617993
4 *680:X 0.000413819
5 *343:35 0.00141139
6 *343:10 0.00195204
7 *343:35 *344:16 0.000260325
8 *343:35 *346:16 4.69276e-05
9 *343:35 *346:26 5.01478e-05
10 *381:A *343:10 0
11 *389:A2 *343:10 6.21908e-05
12 *409:A1 *343:35 9.33632e-05
13 *409:A2 *343:35 8.95297e-05
14 *441:A2 *343:10 0.000111164
15 *441:A2 *343:35 2.6158e-05
16 *466:A *475:A 4.47817e-05
17 *474:A1 *475:A 1.50924e-05
18 *474:B1 *343:10 5.99051e-05
19 *475:B *475:A 0.000354824
20 *644:A *388:B 3.54435e-05
21 *651:A *343:35 4.24629e-05
22 *46:18 *343:10 0
23 *60:8 *343:10 8.61152e-06
24 *60:8 *343:35 1.16107e-05
25 *69:14 *387:C 6.2502e-05
26 *69:14 *343:35 5.91586e-05
27 *70:18 *475:A 2.53202e-05
28 *79:14 *343:35 1.44057e-05
29 *304:14 *388:B 2.12601e-05
30 *304:24 *388:B 3.12128e-05
31 *304:34 *387:C 3.20264e-05
32 *304:34 *475:A 9.43419e-05
33 *307:18 *388:B 2.16608e-05
34 *308:14 *388:B 0.000455763
35 *308:29 *475:A 8.41833e-05
36 *308:29 *343:35 1.28364e-05
37 *314:10 *343:35 3.75837e-05
38 *323:16 *343:35 0.000229992
*RES
1 *680:X *343:10 25.4401 
2 *343:10 *388:B 23.9249 
3 *343:10 *343:35 27.0931 
4 *343:35 *475:A 25.472 
5 *343:35 *387:C 14.9583 
*END

*D_NET *311 0.000833726
*CONN
*I *411:A1 I *D sky130_fd_sc_hd__a21oi_2
*I *648:X O *D sky130_fd_sc_hd__buf_6
*CAP
1 *411:A1 0.000297003
2 *648:X 0.000297003
3 *411:A1 *411:A2 8.07027e-05
4 *411:A1 *649:A 0
5 *637:A *411:A1 0
6 *648:A *411:A1 0.000159016
*RES
1 *648:X *411:A1 35.5969 
*END

*D_NET *312 0.00117947
*CONN
*I *411:A2 I *D sky130_fd_sc_hd__a21oi_2
*I *649:X O *D sky130_fd_sc_hd__buf_6
*CAP
1 *411:A2 0.000454005
2 *649:X 0.000454005
3 *411:A1 *411:A2 8.07027e-05
4 *469:A4 *411:A2 3.43835e-05
5 *637:A *411:A2 0.00015637
*RES
1 *649:X *411:A2 39.7522 
*END

*D_NET *313 0.000521498
*CONN
*I *396:A I *D sky130_fd_sc_hd__xnor2_1
*I *650:X O *D sky130_fd_sc_hd__buf_4
*CAP
1 *396:A 0.000105964
2 *650:X 0.000105964
3 *394:B1 *396:A 3.83055e-05
4 *63:18 *396:A 0.000122378
5 *63:40 *396:A 0.000148888
*RES
1 *650:X *396:A 31.4388 
*END

*D_NET *314 0.00732973
*CONN
*I *452:B1 I *D sky130_fd_sc_hd__o21ai_2
*I *420:B I *D sky130_fd_sc_hd__xnor2_1
*I *466:A I *D sky130_fd_sc_hd__nor3_2
*I *651:X O *D sky130_fd_sc_hd__buf_4
*CAP
1 *452:B1 8.05657e-05
2 *420:B 0.000690836
3 *466:A 0.000648214
4 *651:X 0.000176053
5 *314:37 0.000868589
6 *314:10 0.000921454
7 *420:B *419:A 8.79472e-05
8 *420:B *649:A 0
9 *452:B1 *346:38 4.33655e-05
10 *466:A *475:A 4.47817e-05
11 *466:A *481:A3 0.000136547
12 *466:A *318:30 3.20069e-06
13 *314:10 *343:35 3.75837e-05
14 *391:A3 *466:A 0.000159834
15 *391:A3 *314:37 6.14128e-05
16 *454:A *420:B 0.000713578
17 *466:C *466:A 0
18 *468:A *314:10 5.04829e-06
19 *468:B *466:A 0.000114659
20 *469:A2 *314:10 2.16355e-05
21 *469:B1 *314:10 1.64789e-05
22 *471:A *466:A 0.000246111
23 *482:A *466:A 6.50727e-05
24 *494:B *466:A 0.000288144
25 *636:A *420:B 0.000377273
26 *637:A *420:B 2.81584e-05
27 *651:A *314:10 0.000109427
28 *677:A *420:B 4.23937e-05
29 *692:A *420:B 1.00846e-05
30 *68:17 *420:B 0.00053457
31 *68:17 *314:37 1.1246e-05
32 *70:18 *466:A 0
33 *74:12 *466:A 6.05313e-05
34 *79:14 *420:B 0
35 *79:14 *314:10 0.000304777
36 *79:14 *314:37 0
37 *93:10 *420:B 2.95146e-05
38 *93:10 *452:B1 6.92705e-05
39 *308:16 *314:10 6.24819e-05
40 *308:29 *466:A 0.00022572
41 *308:29 *314:37 3.31733e-05
*RES
1 *651:X *314:10 20.0427 
2 *314:10 *466:A 35.2066 
3 *314:10 *314:37 3.07775 
4 *314:37 *420:B 38.5264 
5 *314:37 *452:B1 16.3145 
*END

*D_NET *315 0.00508564
*CONN
*I *472:A I *D sky130_fd_sc_hd__nor2_1
*I *454:B I *D sky130_fd_sc_hd__nor2_1
*I *469:A1 I *D sky130_fd_sc_hd__o41a_1
*I *466:B I *D sky130_fd_sc_hd__nor3_2
*I *652:X O *D sky130_fd_sc_hd__buf_4
*CAP
1 *472:A 0
2 *454:B 5.82803e-05
3 *469:A1 0
4 *466:B 0.000457879
5 *652:X 0.000210962
6 *315:34 0.00061258
7 *315:26 0.000767741
8 *315:16 0.000765722
9 *315:16 *323:26 0
10 *315:16 *346:26 6.84074e-06
11 *315:16 *358:16 6.75453e-05
12 *315:34 *469:A3 7.77309e-06
13 *315:34 *345:10 2.19276e-05
14 *315:34 *346:38 0.000116986
15 *384:A2 *315:26 6.67435e-06
16 *391:A3 *315:34 0.000189628
17 *455:A *454:B 3.82228e-05
18 *455:B *466:B 7.74044e-06
19 *455:B *315:34 0.000186015
20 *466:C *466:B 0.000175933
21 *468:A *466:B 0.000505256
22 *469:B1 *466:B 0.000206696
23 *470:A *466:B 0.000118002
24 *472:B *315:16 0
25 *472:B *315:26 2.33103e-06
26 *494:B *466:B 5.41227e-05
27 *640:A *315:16 3.39219e-05
28 *21:22 *466:B 7.86847e-05
29 *38:8 *315:16 0.000165521
30 *55:16 *315:16 4.99147e-05
31 *68:17 *315:34 0.000172743
*RES
1 *652:X *315:16 24.4785 
2 *315:16 *315:26 12.8134 
3 *315:26 *315:34 11.315 
4 *315:34 *466:B 34.0954 
5 *315:34 *469:A1 9.24915 
6 *315:26 *454:B 15.0271 
7 *315:16 *472:A 9.24915 
*END

*D_NET *316 0.00297086
*CONN
*I *693:A I *D sky130_fd_sc_hd__buf_6
*I *385:A2 I *D sky130_fd_sc_hd__o21a_4
*I *653:X O *D sky130_fd_sc_hd__buf_6
*CAP
1 *693:A 0
2 *385:A2 0.000604587
3 *653:X 7.61897e-05
4 *316:8 0.000680777
5 *385:A2 *409:A1 5.01843e-05
6 *385:A2 *418:A1 6.3657e-05
7 *385:A2 *418:B1 1.65872e-05
8 *385:A2 *353:10 0.000748053
9 *316:8 *409:A1 1.45634e-05
10 *635:A *385:A2 0.000173804
11 *635:A *316:8 0.000151741
12 *654:A *385:A2 0.000328703
13 *47:16 *385:A2 6.20146e-05
*RES
1 *653:X *316:8 16.4116 
2 *316:8 *385:A2 32.5728 
3 *316:8 *693:A 13.7491 
*END

*D_NET *317 0.00242602
*CONN
*I *410:B1 I *D sky130_fd_sc_hd__a211oi_4
*I *384:B1 I *D sky130_fd_sc_hd__a211o_1
*I *654:X O *D sky130_fd_sc_hd__buf_6
*CAP
1 *410:B1 3.4357e-05
2 *384:B1 0.000306134
3 *654:X 0.000148033
4 *317:8 0.000488524
5 *384:B1 *418:A1 0.000143175
6 *410:B1 *410:A2 2.23069e-05
7 *384:A1 *384:B1 2.57986e-05
8 *384:A2 *384:B1 3.5534e-06
9 *411:B1 *410:B1 0.000102555
10 *654:A *384:B1 0.000163344
11 *654:A *317:8 0.000397981
12 *658:A *384:B1 0.000196836
13 *658:A *317:8 6.2437e-05
14 *677:A *317:8 0
15 *692:A *317:8 9.75356e-05
16 *38:23 *384:B1 0.000203517
17 *92:8 *384:B1 2.99287e-05
*RES
1 *654:X *317:8 20.5642 
2 *317:8 *384:B1 24.7073 
3 *317:8 *410:B1 5.6936 
*END

*D_NET *318 0.00291053
*CONN
*I *482:B I *D sky130_fd_sc_hd__xor2_1
*I *655:X O *D sky130_fd_sc_hd__buf_4
*CAP
1 *482:B 0
2 *655:X 0.00090583
3 *318:30 0.00090583
4 *318:30 *320:8 1.2819e-05
5 *395:A1 *318:30 0.000169718
6 *444:A2 *318:30 0.000253069
7 *466:A *318:30 3.20069e-06
8 *481:A1 *318:30 4.05018e-05
9 *482:A *318:30 5.87371e-05
10 *655:A *318:30 2.65667e-05
11 *50:10 *318:30 2.99929e-05
12 *70:18 *318:30 4.34034e-05
13 *74:12 *318:30 0.000394409
14 *75:14 *318:30 4.70005e-05
15 *77:21 *318:30 0
16 *106:28 *318:30 1.94472e-05
*RES
1 *655:X *318:30 43.3676 
2 *318:30 *482:B 9.24915 
*END

*D_NET *9 0.0116548
*CONN
*I *401:B I *D sky130_fd_sc_hd__and2_1
*I *438:B I *D sky130_fd_sc_hd__and2_1
*I *402:B I *D sky130_fd_sc_hd__and2_1
*I *434:A I *D sky130_fd_sc_hd__and2_1
*I *421:A I *D sky130_fd_sc_hd__and2_1
*I *449:A I *D sky130_fd_sc_hd__and2_1
*I *489:A I *D sky130_fd_sc_hd__and2_1
*I *404:B I *D sky130_fd_sc_hd__and2_1
*I *616:X O *D sky130_fd_sc_hd__dlygate4sd2_1
*CAP
1 *401:B 0.00038613
2 *438:B 3.07805e-05
3 *402:B 3.5247e-05
4 *434:A 0.000291194
5 *421:A 0.000867718
6 *449:A 0
7 *489:A 0.000150585
8 *404:B 0
9 *616:X 0.00110126
10 *9:79 0.00120103
11 *9:34 0.000176321
12 *9:30 0.000724286
13 *9:14 0.000150585
14 *9:12 0.000749025
15 *9:6 0.00154516
16 *401:B *501:CIN 0
17 *401:B *555:B 1.43698e-05
18 *401:B *338:40 0.000216647
19 *421:A *449:B 0.000277488
20 *421:A *166:8 0.000463649
21 *434:A *434:B 6.50727e-05
22 *434:A *495:A 0
23 *434:A *534:B 4.90829e-05
24 *434:A *540:A 2.15184e-05
25 *438:B *338:40 2.71397e-05
26 *489:A *527:A 0.000128227
27 *489:A *545:A 4.43309e-05
28 *9:6 *456:A 2.20702e-05
29 *9:6 *505:CIN 5.45795e-06
30 *9:6 *616:A 8.9075e-05
31 *9:6 *674:A 0.000313481
32 *9:6 *676:A 4.31703e-05
33 *9:6 *330:47 3.07561e-05
34 *9:6 *339:10 0.000216458
35 *9:12 *414:B 1.65872e-05
36 *9:12 *450:A 1.03594e-05
37 *9:12 *545:A 7.04109e-05
38 *9:12 *266:22 0.000271044
39 *9:12 *348:12 0.000122842
40 *9:30 *450:A 0.000319412
41 *9:30 *495:A 0
42 *9:30 *523:B 0.000146652
43 *9:30 *534:A 0
44 *9:30 *534:B 7.73705e-05
45 *9:30 *541:A 0
46 *9:34 *166:8 0.000324166
47 *9:79 *421:B 0.00010616
48 *9:79 *428:B 0.000616977
49 *9:79 *166:8 9.75148e-06
50 *9:79 *361:12 2.85274e-05
51 *9:79 *361:14 1.80122e-05
52 *402:A *9:12 2.61147e-05
53 *489:B *489:A 5.31465e-05
*RES
1 *616:X *9:6 26.6106 
2 *9:6 *9:12 12.4621 
3 *9:12 *9:14 4.5 
4 *9:14 *404:B 9.24915 
5 *9:14 *489:A 14.4335 
6 *9:12 *9:30 10.137 
7 *9:30 *9:34 7.99641 
8 *9:34 *449:A 9.24915 
9 *9:34 *421:A 14.4094 
10 *9:30 *434:A 20.54 
11 *9:6 *402:B 10.2378 
12 *421:A *9:79 27.1079 
13 *9:79 *438:B 14.7506 
14 *9:79 *401:B 24.473 
*END

*D_NET *319 0.00493726
*CONN
*I *480:B1 I *D sky130_fd_sc_hd__o2bb2ai_1
*I *492:A I *D sky130_fd_sc_hd__xor2_1
*I *656:X O *D sky130_fd_sc_hd__buf_4
*CAP
1 *480:B1 0.000675641
2 *492:A 0
3 *656:X 0.000499258
4 *319:16 0.0011749
5 *480:B1 *494:A 0.000164255
6 *394:A2 *319:16 0.000207266
7 *394:B1 *319:16 2.20471e-05
8 *396:B *319:16 0.000336185
9 *444:A2 *480:B1 6.08467e-05
10 *478:B *480:B1 2.65345e-05
11 *491:B1_N *480:B1 7.73661e-05
12 *492:B *480:B1 9.96375e-05
13 *494:B *480:B1 7.68277e-05
14 *626:A *480:B1 5.03013e-06
15 *656:A *319:16 0.00016562
16 *21:22 *480:B1 0.000193425
17 *63:40 *480:B1 0.000398438
18 *63:40 *319:16 0.000339768
19 *77:10 *319:16 1.9839e-05
20 *106:28 *480:B1 0.000394372
*RES
1 *656:X *319:16 33.469 
2 *319:16 *492:A 9.24915 
3 *319:16 *480:B1 39.6658 
*END

*D_NET *320 0.002981
*CONN
*I *480:B2 I *D sky130_fd_sc_hd__o2bb2ai_1
*I *478:A I *D sky130_fd_sc_hd__nor2_1
*I *657:X O *D sky130_fd_sc_hd__buf_4
*CAP
1 *480:B2 0.000243259
2 *478:A 2.71612e-05
3 *657:X 0.000181678
4 *320:8 0.000452098
5 *392:C *320:8 5.23435e-05
6 *444:A2 *480:B2 0.00040319
7 *444:A2 *320:8 3.20069e-06
8 *657:A *320:8 1.22289e-05
9 *49:10 *478:A 2.65831e-05
10 *50:10 *478:A 5.04829e-06
11 *50:10 *320:8 0.000468527
12 *91:14 *480:B2 0.000553728
13 *91:14 *320:8 0.000539139
14 *318:30 *320:8 1.2819e-05
*RES
1 *657:X *320:8 23.8862 
2 *320:8 *478:A 14.4725 
3 *320:8 *480:B2 23.7791 
*END

*D_NET *321 0.00260078
*CONN
*I *410:C1 I *D sky130_fd_sc_hd__a211oi_4
*I *418:B1 I *D sky130_fd_sc_hd__o21a_1
*I *658:X O *D sky130_fd_sc_hd__buf_4
*CAP
1 *410:C1 0
2 *418:B1 0.000643558
3 *658:X 0.000355179
4 *321:14 0.000998737
5 *418:B1 *418:A1 0.000163069
6 *418:B1 *357:6 4.77281e-05
7 *321:14 *689:A 3.7121e-05
8 P[6] *321:14 5.39769e-05
9 *385:A2 *418:B1 1.65872e-05
10 *654:A *418:B1 0
11 *654:A *321:14 0
12 *692:A *418:B1 0.0001195
13 *59:19 *418:B1 0
14 *79:14 *418:B1 0.000122858
15 *92:8 *418:B1 4.24629e-05
*RES
1 *658:X *321:14 21.3737 
2 *321:14 *418:B1 35.6188 
3 *321:14 *410:C1 13.7491 
*END

*D_NET *344 0.00382958
*CONN
*I *440:A2 I *D sky130_fd_sc_hd__o221ai_2
*I *681:X O *D sky130_fd_sc_hd__buf_4
*CAP
1 *440:A2 0
2 *681:X 0.000625633
3 *344:16 0.000625633
4 *344:16 *346:16 0.000260325
5 *382:A *344:16 0.000336928
6 *383:A *344:16 3.45648e-05
7 *383:B *344:16 0.000172247
8 *444:A1 *344:16 0.000399536
9 *645:A *344:16 6.57318e-05
10 *38:16 *344:16 3.18622e-05
11 *88:12 *344:16 0.0010168
12 *343:35 *344:16 0.000260325
*RES
1 *681:X *344:16 46.0575 
2 *344:16 *440:A2 9.24915 
*END

*D_NET *345 0.00125637
*CONN
*I *452:A2 I *D sky130_fd_sc_hd__o21ai_2
*I *469:A3 I *D sky130_fd_sc_hd__o41a_1
*I *682:X O *D sky130_fd_sc_hd__buf_4
*CAP
1 *452:A2 0.000110759
2 *469:A3 0.000111985
3 *682:X 8.03728e-05
4 *345:10 0.000303117
5 *452:A2 *346:38 7.63284e-05
6 *345:10 *346:38 9.60216e-05
7 *455:A *469:A3 8.62625e-06
8 *455:A *345:10 0.000175802
9 *455:B *452:A2 6.08467e-05
10 *455:B *469:A3 0.000118485
11 *469:A4 *469:A3 5.50458e-05
12 *469:A4 *345:10 1.2693e-05
13 *638:A *452:A2 1.65872e-05
14 *315:34 *469:A3 7.77309e-06
15 *315:34 *345:10 2.19276e-05
*RES
1 *682:X *345:10 17.135 
2 *345:10 *469:A3 17.1444 
3 *345:10 *452:A2 16.691 
*END

*D_NET *346 0.0058901
*CONN
*I *681:A I *D sky130_fd_sc_hd__buf_4
*I *386:A2 I *D sky130_fd_sc_hd__a21oi_1
*I *419:B I *D sky130_fd_sc_hd__nor2_4
*I *682:A I *D sky130_fd_sc_hd__buf_4
*I *683:X O *D sky130_fd_sc_hd__buf_4
*CAP
1 *681:A 0
2 *386:A2 0
3 *419:B 0.000381964
4 *682:A 5.18323e-05
5 *683:X 0.000233161
6 *346:38 0.00113451
7 *346:26 0.000935574
8 *346:16 0.00046802
9 *419:B *649:A 0.000348337
10 *382:A *346:16 0.000148144
11 *386:A1 *346:26 1.64983e-05
12 *386:B1 *346:38 0.000132206
13 *411:B1 *419:B 0.000211546
14 *419:A *419:B 6.46815e-05
15 *420:A *419:B 2.41274e-06
16 *452:A2 *346:38 7.63284e-05
17 *452:B1 *346:38 4.33655e-05
18 *453:A *419:B 0
19 *455:A *682:A 5.04829e-06
20 *469:A4 *419:B 0.000102353
21 *469:A4 *682:A 4.62112e-05
22 *469:A4 *346:38 3.89332e-06
23 *640:A *346:26 3.62444e-05
24 *651:A *346:26 5.94075e-05
25 *683:A *346:16 6.92705e-05
26 *55:16 *346:16 2.81103e-05
27 *55:16 *346:26 8.03393e-06
28 *56:6 *346:16 0.000213725
29 *68:17 *419:B 0
30 *68:17 *346:38 1.90395e-05
31 *69:14 *346:38 4.2273e-06
32 *79:14 *346:16 0.000144402
33 *79:14 *346:26 4.87439e-05
34 *93:10 *346:38 6.50727e-05
35 *315:16 *346:26 6.84074e-06
36 *315:34 *346:38 0.000116986
37 *323:16 *346:16 3.63169e-05
38 *323:26 *346:16 0.000174175
39 *343:35 *346:16 4.69276e-05
40 *343:35 *346:26 5.01478e-05
41 *344:16 *346:16 0.000260325
42 *345:10 *346:38 9.60216e-05
*RES
1 *683:X *346:16 28.8984 
2 *346:16 *346:26 14.9191 
3 *346:26 *346:38 18.31 
4 *346:38 *682:A 15.2664 
5 *346:38 *419:B 26.2292 
6 *346:26 *386:A2 9.24915 
7 *346:16 *681:A 9.24915 
*END

*D_NET *322 0.00306574
*CONN
*I *374:A2 I *D sky130_fd_sc_hd__a21oi_2
*I *409:A2 I *D sky130_fd_sc_hd__a21o_2
*I *659:X O *D sky130_fd_sc_hd__buf_6
*CAP
1 *374:A2 0.000313537
2 *409:A2 0.000535764
3 *659:X 4.25479e-05
4 *322:8 0.00089185
5 *374:A2 *374:A1 8.96809e-05
6 *374:A2 *409:A1 7.75742e-05
7 *374:A2 *486:B 2.65667e-05
8 *374:A2 *689:A 0
9 *409:A2 *409:A1 0.000447627
10 *409:A2 *451:A2 2.51064e-05
11 *409:A2 *343:35 8.95297e-05
12 *322:8 *410:A2 4.89251e-05
13 P[6] *374:A2 0
14 *439:B *409:A2 7.64646e-05
15 *441:A2 *409:A2 0.000284485
16 *659:A *374:A2 5.50522e-06
17 *659:A *409:A2 4.91625e-05
18 *683:A *409:A2 6.14128e-05
19 *59:19 *374:A2 0
*RES
1 *659:X *322:8 15.0271 
2 *322:8 *409:A2 31.6689 
3 *322:8 *374:A2 22.1913 
*END

*D_NET *323 0.00340481
*CONN
*I *485:B1 I *D sky130_fd_sc_hd__a211oi_2
*I *409:B1 I *D sky130_fd_sc_hd__a21o_2
*I *451:B1 I *D sky130_fd_sc_hd__a211oi_2
*I *384:C1 I *D sky130_fd_sc_hd__a211o_1
*I *660:X O *D sky130_fd_sc_hd__buf_4
*CAP
1 *485:B1 0
2 *409:B1 0
3 *451:B1 0
4 *384:C1 3.39422e-05
5 *660:X 0.000126302
6 *323:26 0.000466477
7 *323:16 0.000776687
8 *323:12 0.000470454
9 *323:16 *409:A1 7.92757e-06
10 *323:16 *485:C1 6.27782e-05
11 *323:16 *343:35 0.000229992
12 *323:16 *346:16 3.63169e-05
13 *323:26 *346:16 0.000174175
14 *371:A1 *323:12 0
15 *371:B1 *323:12 0.000174205
16 *382:A *323:26 8.89497e-06
17 *384:A1 *384:C1 9.94165e-05
18 *384:A1 *323:26 3.60193e-05
19 *384:A2 *323:26 0.000209636
20 *439:B *323:26 5.90171e-05
21 *440:B2 *323:26 1.5714e-05
22 *441:A2 *323:26 5.69068e-05
23 *451:C1 *384:C1 0.000120239
24 *451:C1 *323:26 3.31721e-05
25 *486:A *323:16 6.92705e-05
26 *683:A *323:26 9.20254e-05
27 *47:16 *323:26 2.58616e-05
28 *92:8 *384:C1 1.93845e-05
29 *315:16 *323:26 0
*RES
1 *660:X *323:12 22.0503 
2 *323:12 *323:16 9.06656 
3 *323:16 *323:26 22.6576 
4 *323:26 *384:C1 11.9498 
5 *323:26 *451:B1 9.24915 
6 *323:16 *409:B1 9.24915 
7 *323:12 *485:B1 9.24915 
*END

*D_NET *324 0.00354981
*CONN
*I *374:A1 I *D sky130_fd_sc_hd__a21oi_2
*I *409:A1 I *D sky130_fd_sc_hd__a21o_2
*I *661:X O *D sky130_fd_sc_hd__buf_4
*CAP
1 *374:A1 0.000149123
2 *409:A1 0.000773701
3 *661:X 0.000162214
4 *324:8 0.00108504
5 *374:A1 *486:B 6.50586e-05
6 *409:A1 *343:35 9.33632e-05
7 P[6] *374:A1 0
8 *374:A2 *374:A1 8.96809e-05
9 *374:A2 *409:A1 7.75742e-05
10 *385:A2 *409:A1 5.01843e-05
11 *409:A2 *409:A1 0.000447627
12 *634:A *374:A1 7.44269e-05
13 *635:A *374:A1 0
14 *653:A *324:8 4.58003e-05
15 *661:A *324:8 2.41274e-06
16 *59:6 *324:8 6.20449e-05
17 *60:8 *409:A1 0.000258939
18 *60:37 *409:A1 9.01323e-05
19 *316:8 *409:A1 1.45634e-05
20 *323:16 *409:A1 7.92757e-06
*RES
1 *661:X *324:8 17.8002 
2 *324:8 *409:A1 37.5585 
3 *324:8 *374:A1 18.7961 
*END

*D_NET *325 0.00343729
*CONN
*I *369:B I *D sky130_fd_sc_hd__xor2_1
*I *484:A1 I *D sky130_fd_sc_hd__a21o_1
*I *373:A1 I *D sky130_fd_sc_hd__a211oi_4
*I *662:X O *D sky130_fd_sc_hd__buf_6
*CAP
1 *369:B 0.00028243
2 *484:A1 0.000274837
3 *373:A1 0.000412691
4 *662:X 0
5 *325:17 0.000600562
6 *325:6 0.000455987
7 *369:B *369:A 0.000182657
8 *369:B *484:A2 0.000304627
9 *325:17 *484:A2 5.23435e-05
10 *371:A1 *373:A1 0
11 *417:B *369:B 0
12 *532:B *373:A1 0.000132367
13 *47:6 *484:A1 0.000398186
14 *58:12 *369:B 8.92568e-06
15 *61:12 *373:A1 0.00031945
16 *61:12 *325:17 1.22289e-05
*RES
1 *662:X *325:6 13.7491 
2 *325:6 *373:A1 26.7929 
3 *325:6 *325:17 1.41674 
4 *325:17 *484:A1 18.3548 
5 *325:17 *369:B 23.0557 
*END

*D_NET *160 0.000360022
*CONN
*I *521:A I *D sky130_fd_sc_hd__fa_1
*I *406:X O *D sky130_fd_sc_hd__and2_1
*CAP
1 *521:A 5.43306e-05
2 *406:X 5.43306e-05
3 *521:A *399:B 0.000151726
4 *521:A *521:B 0
5 *521:A *521:CIN 9.96342e-05
*RES
1 *406:X *521:A 20.9116 
*END

*D_NET *161 0.00110758
*CONN
*I *501:CIN I *D sky130_fd_sc_hd__fa_1
*I *408:X O *D sky130_fd_sc_hd__and2_1
*CAP
1 *501:CIN 0.000351758
2 *408:X 0.000351758
3 *501:CIN *522:CIN 0.000404059
4 *401:B *501:CIN 0
*RES
1 *408:X *501:CIN 33.9359 
*END

*D_NET *162 0.000275659
*CONN
*I *502:B I *D sky130_fd_sc_hd__fa_1
*I *367:X O *D sky130_fd_sc_hd__and2_4
*CAP
1 *502:B 6.81571e-05
2 *367:X 6.81571e-05
3 *502:B *465:B 4.63668e-05
4 *502:B *332:25 9.29777e-05
*RES
1 *367:X *502:B 20.4964 
*END

*D_NET *163 0.000436756
*CONN
*I *503:B I *D sky130_fd_sc_hd__fa_2
*I *366:X O *D sky130_fd_sc_hd__and2_1
*CAP
1 *503:B 4.65253e-05
2 *366:X 4.65253e-05
3 *503:B *503:CIN 0.000153225
4 *503:B *609:A 0.000177787
5 *503:B *332:25 1.2693e-05
*RES
1 *366:X *503:B 21.3269 
*END

*D_NET *164 0.00152774
*CONN
*I *506:B I *D sky130_fd_sc_hd__fa_2
*I *368:X O *D sky130_fd_sc_hd__and2_1
*CAP
1 *506:B 0.00060611
2 *368:X 0.00060611
3 *506:B *336:26 6.28795e-05
4 *506:B *349:23 8.94238e-05
5 *686:A *506:B 0.000151018
6 *11:10 *506:B 1.21985e-05
*RES
1 *368:X *506:B 35.1093 
*END

*D_NET *165 0.000236746
*CONN
*I *509:CIN I *D sky130_fd_sc_hd__fa_1
*I *377:X O *D sky130_fd_sc_hd__and2_4
*CAP
1 *509:CIN 5.23994e-05
2 *377:X 5.23994e-05
3 *509:CIN *513:CIN 3.56119e-05
4 *5:51 *509:CIN 9.63354e-05
*RES
1 *377:X *509:CIN 29.3303 
*END

*D_NET *166 0.00401153
*CONN
*I *495:A I *D sky130_fd_sc_hd__fa_1
*I *534:A I *D sky130_fd_sc_hd__ha_1
*I *421:X O *D sky130_fd_sc_hd__and2_1
*CAP
1 *495:A 0.00066378
2 *534:A 0.000103993
3 *421:X 0.00046753
4 *166:8 0.0012353
5 *495:A *541:A 2.24484e-05
6 *534:A *534:B 0.000114271
7 *534:A *541:A 0.00014663
8 *166:8 *421:B 5.28741e-05
9 *370:A2 *495:A 6.72103e-06
10 *421:A *166:8 0.000463649
11 *434:A *495:A 0
12 *665:A *495:A 0
13 *9:30 *495:A 0
14 *9:30 *534:A 0
15 *9:34 *166:8 0.000324166
16 *9:79 *166:8 9.75148e-06
17 *41:16 *534:A 0.00011818
18 *42:10 *495:A 0.000225168
19 *55:6 *166:8 1.92926e-05
20 *145:12 *495:A 3.77765e-05
*RES
1 *421:X *166:8 26.6738 
2 *166:8 *534:A 17.6896 
3 *166:8 *495:A 22.6001 
*END

*D_NET *167 0.000329104
*CONN
*I *521:B I *D sky130_fd_sc_hd__fa_1
*I *428:X O *D sky130_fd_sc_hd__and2_1
*CAP
1 *521:B 0.000141032
2 *428:X 0.000141032
3 *521:B *521:CIN 0
4 *521:B *551:B 4.70402e-05
5 *521:A *521:B 0
*RES
1 *428:X *521:B 21.69 
*END

*D_NET *168 0.00115983
*CONN
*I *501:A I *D sky130_fd_sc_hd__fa_1
*I *423:X O *D sky130_fd_sc_hd__and2_4
*CAP
1 *501:A 0.000391186
2 *423:X 0.000391186
3 *501:A *428:B 6.08467e-05
4 *501:A *701:A 0.000134459
5 *501:A *330:73 0.00017422
6 *501:A *339:37 0
7 *524:A *501:A 7.92757e-06
*RES
1 *423:X *501:A 27.0672 
*END

*D_NET *169 0.00156305
*CONN
*I *502:CIN I *D sky130_fd_sc_hd__fa_1
*I *429:X O *D sky130_fd_sc_hd__and2_4
*CAP
1 *502:CIN 0.000582434
2 *429:X 0.000582434
3 *502:CIN *332:25 0.000398179
*RES
1 *429:X *502:CIN 27.5649 
*END

*D_NET *170 0.000644585
*CONN
*I *555:A I *D sky130_fd_sc_hd__ha_1
*I *490:X O *D sky130_fd_sc_hd__and2_1
*CAP
1 *555:A 0.000202824
2 *490:X 0.000202824
3 *555:A *428:B 0
4 *555:A *555:B 0
5 *495:B *555:A 0.000163144
6 *631:A *555:A 7.57931e-05
*RES
1 *490:X *555:A 33.7966 
*END

*D_NET *171 0.00099876
*CONN
*I *503:CIN I *D sky130_fd_sc_hd__fa_2
*I *430:X O *D sky130_fd_sc_hd__and2_1
*CAP
1 *503:CIN 0.000239974
2 *430:X 0.000239974
3 *503:CIN *609:A 1.23668e-05
4 *503:CIN *688:A 6.46815e-05
5 *503:CIN *332:25 0.000288538
6 *503:B *503:CIN 0.000153225
*RES
1 *430:X *503:CIN 34.6597 
*END

*D_NET *172 0.00325993
*CONN
*I *506:A I *D sky130_fd_sc_hd__fa_2
*I *432:X O *D sky130_fd_sc_hd__and2_1
*CAP
1 *506:A 0.000597258
2 *432:X 0.000597258
3 *506:A *618:A 2.29386e-05
4 *506:A *220:16 0.000825333
5 *506:A *330:32 0.000288523
6 *506:A *330:47 0.000674484
7 *3:23 *506:A 0.000134263
8 *12:12 *506:A 0.000119871
*RES
1 *432:X *506:A 41.5067 
*END

*D_NET *173 0.00053852
*CONN
*I *509:B I *D sky130_fd_sc_hd__fa_1
*I *437:X O *D sky130_fd_sc_hd__and2_4
*CAP
1 *509:B 0.000127519
2 *437:X 0.000127519
3 *509:B *513:B 6.24207e-05
4 *509:B *244:14 6.58857e-05
5 *377:B *509:B 0.000110458
6 *15:86 *509:B 4.47179e-05
*RES
1 *437:X *509:B 22.6049 
*END

*D_NET *174 0.000551784
*CONN
*I *513:A I *D sky130_fd_sc_hd__fa_1
*I *436:X O *D sky130_fd_sc_hd__and2_1
*CAP
1 *513:A 0.000125631
2 *436:X 0.000125631
3 *513:A *497:CIN 0.000150511
4 *513:A *513:B 0.000102546
5 *513:A *514:B 4.74657e-05
*RES
1 *436:X *513:A 22.1052 
*END

*D_NET *175 0.00234122
*CONN
*I *551:A I *D sky130_fd_sc_hd__ha_4
*I *434:X O *D sky130_fd_sc_hd__and2_1
*CAP
1 *551:A 0.000508866
2 *434:X 0.000508866
3 *551:A P[2] 0
4 *551:A *534:B 0.000284948
5 *495:B *551:A 2.48543e-05
6 *524:B *551:A 7.37686e-05
7 *532:A *551:A 0.000169041
8 *144:14 *551:A 0.000122083
9 *145:12 *551:A 0.00064879
*RES
1 *434:X *551:A 45.77 
*END

*D_NET *176 0.000597588
*CONN
*I *522:A I *D sky130_fd_sc_hd__fa_1
*I *435:X O *D sky130_fd_sc_hd__and2_1
*CAP
1 *522:A 0.000291603
2 *435:X 0.000291603
3 *522:A *435:B 1.43832e-05
*RES
1 *435:X *522:A 24.5418 
*END

*D_NET *177 0.000724072
*CONN
*I *544:A I *D sky130_fd_sc_hd__ha_4
*I *431:X O *D sky130_fd_sc_hd__and2_1
*CAP
1 *544:A 0.000300547
2 *431:X 0.000300547
3 *675:A *544:A 0.000122978
*RES
1 *431:X *544:A 32.6874 
*END

*D_NET *178 0.000329811
*CONN
*I *504:CIN I *D sky130_fd_sc_hd__fa_2
*I *456:X O *D sky130_fd_sc_hd__and2_1
*CAP
1 *504:CIN 8.46463e-05
2 *456:X 8.46463e-05
3 *504:CIN *333:17 9.60366e-05
4 *674:A *504:CIN 0
5 *10:8 *504:CIN 6.44814e-05
*RES
1 *456:X *504:CIN 30.0477 
*END

*D_NET *179 0.00124668
*CONN
*I *507:B I *D sky130_fd_sc_hd__fa_2
*I *457:X O *D sky130_fd_sc_hd__and2_1
*CAP
1 *507:B 0.000260114
2 *457:X 0.000260114
3 *507:B *457:B 0.000114584
4 *507:B *503:A 0.000205332
5 *507:B *220:16 0.000113646
6 *507:A *507:B 0.000156823
7 *1:10 *507:B 9.17188e-05
8 *2:6 *507:B 2.84892e-05
9 *2:16 *507:B 1.58551e-05
*RES
1 *457:X *507:B 28.5606 
*END

*D_NET *180 0.00091956
*CONN
*I *509:A I *D sky130_fd_sc_hd__fa_1
*I *458:X O *D sky130_fd_sc_hd__and2_4
*CAP
1 *509:A 0.000356513
2 *458:X 0.000356513
3 *432:A *509:A 3.26322e-05
4 *668:A *509:A 1.82696e-05
5 *671:A *509:A 6.36477e-05
6 *3:23 *509:A 4.60884e-05
7 *3:34 *509:A 4.58959e-05
8 *4:12 *509:A 0
*RES
1 *458:X *509:A 27.2573 
*END

*D_NET *181 0.00025124
*CONN
*I *550:A I *D sky130_fd_sc_hd__ha_4
*I *433:X O *D sky130_fd_sc_hd__and2_1
*CAP
1 *550:A 9.61233e-05
2 *433:X 9.61233e-05
3 *550:A *399:A 1.59917e-05
4 *550:A *406:A 2.6065e-05
5 *550:A *550:B 1.69371e-05
*RES
1 *433:X *550:A 30.1608 
*END

*D_NET *182 0.00230841
*CONN
*I *513:B I *D sky130_fd_sc_hd__fa_1
*I *446:X O *D sky130_fd_sc_hd__and2_1
*CAP
1 *513:B 0.000758911
2 *446:X 0.000758911
3 *513:B *497:CIN 1.37189e-05
4 *513:B *513:CIN 0.000289626
5 *513:B *244:14 0
6 *377:B *513:B 1.44764e-05
7 *509:B *513:B 6.24207e-05
8 *513:A *513:B 0.000102546
9 *15:86 *513:B 0.000307799
*RES
1 *446:X *513:B 35.035 
*END

*D_NET *183 0.00118477
*CONN
*I *496:A I *D sky130_fd_sc_hd__fa_1
*I *447:X O *D sky130_fd_sc_hd__and2_1
*CAP
1 *496:A 0.000359021
2 *447:X 0.000359021
3 *496:A *496:B 3.82114e-05
4 *496:A *331:8 2.81717e-05
5 *476:A *496:A 2.7961e-05
6 *5:27 *496:A 7.64506e-05
7 *15:58 *496:A 0.000107496
8 *15:62 *496:A 0.000118485
9 *16:66 *496:A 6.99486e-05
*RES
1 *447:X *496:A 26.2956 
*END

*D_NET *184 0.000606704
*CONN
*I *522:B I *D sky130_fd_sc_hd__fa_1
*I *449:X O *D sky130_fd_sc_hd__and2_1
*CAP
1 *522:B 0.000287603
2 *449:X 0.000287603
3 *522:B *435:B 0
4 *522:B *449:B 3.14978e-05
5 *522:B *524:CIN 0
6 *522:B *534:B 0
*RES
1 *449:X *522:B 24.5418 
*END

*D_NET *185 0.000197452
*CONN
*I *523:A I *D sky130_fd_sc_hd__fa_1
*I *448:X O *D sky130_fd_sc_hd__and2_1
*CAP
1 *523:A 9.45431e-05
2 *448:X 9.45431e-05
3 *523:A *450:A 8.36586e-06
*RES
1 *448:X *523:A 20.4964 
*END

*D_NET *186 0.000809364
*CONN
*I *505:A I *D sky130_fd_sc_hd__fa_1
*I *459:X O *D sky130_fd_sc_hd__and2_1
*CAP
1 *505:A 0.000207762
2 *459:X 0.000207762
3 *505:A *505:CIN 2.94933e-05
4 *505:A *523:CIN 0.000212852
5 *505:A *349:23 0.000151494
*RES
1 *459:X *505:A 23.2989 
*END

*D_NET *187 0.000878026
*CONN
*I *508:A I *D sky130_fd_sc_hd__fa_1
*I *462:X O *D sky130_fd_sc_hd__and2_1
*CAP
1 *508:A 0.000201985
2 *462:X 0.000201985
3 *508:A *462:B 9.76996e-05
4 *508:A *508:B 2.03156e-05
5 *508:A *508:CIN 0.000272995
6 *508:A *528:B 6.47123e-05
7 *510:A *508:A 1.64943e-05
8 *12:18 *508:A 1.83795e-06
*RES
1 *462:X *508:A 24.9571 
*END

*D_NET *188 0.000302964
*CONN
*I *510:B I *D sky130_fd_sc_hd__fa_2
*I *463:X O *D sky130_fd_sc_hd__and2_1
*CAP
1 *510:B 0.000135733
2 *463:X 0.000135733
3 *510:B *510:CIN 0
4 *510:B *244:14 0
5 *510:B *336:28 3.14978e-05
6 *686:A *510:B 0
*RES
1 *463:X *510:B 21.2198 
*END

*D_NET *189 0.00291968
*CONN
*I *513:CIN I *D sky130_fd_sc_hd__fa_1
*I *461:X O *D sky130_fd_sc_hd__and2_1
*CAP
1 *513:CIN 0.000837467
2 *461:X 0.000837467
3 *513:CIN *497:CIN 1.12354e-05
4 *513:CIN *514:CIN 0.000158451
5 *513:CIN *330:10 0.000222149
6 *377:A *513:CIN 2.58616e-05
7 *377:B *513:CIN 0.000454669
8 *509:CIN *513:CIN 3.56119e-05
9 *513:B *513:CIN 0.000289626
10 *5:51 *513:CIN 4.71447e-05
*RES
1 *461:X *513:CIN 46.078 
*END

*D_NET *190 0.000656864
*CONN
*I *496:B I *D sky130_fd_sc_hd__fa_1
*I *460:X O *D sky130_fd_sc_hd__and2_1
*CAP
1 *496:B 0.000215426
2 *460:X 0.000215426
3 *476:A *496:B 1.61631e-05
4 *496:A *496:B 3.82114e-05
5 *5:27 *496:B 1.16199e-05
6 *5:38 *496:B 4.82966e-05
7 *15:58 *496:B 0.000111722
*RES
1 *460:X *496:B 14.9278 
*END

*D_NET *191 0.00267358
*CONN
*I *498:A I *D sky130_fd_sc_hd__fa_1
*I *464:X O *D sky130_fd_sc_hd__and2_1
*CAP
1 *498:A 0.000624894
2 *464:X 0.000624894
3 *498:A *427:A 0.000172721
4 *498:A *427:B 5.9171e-05
5 *498:A *498:CIN 6.08467e-05
6 *498:A *499:B 0.000115934
7 *498:A *499:CIN 5.55683e-06
8 *498:A *500:B 0.000107496
9 *498:A *546:B 2.52592e-05
10 *498:A *614:A 7.71886e-05
11 *405:B *498:A 1.92172e-05
12 *464:A *498:A 0.000470571
13 *464:B *498:A 4.58003e-05
14 *499:A *498:A 1.10297e-05
15 *16:25 *498:A 3.31882e-05
16 *16:40 *498:A 0.000219809
*RES
1 *464:X *498:A 45.0441 
*END

*D_NET *192 0.00223687
*CONN
*I *521:CIN I *D sky130_fd_sc_hd__fa_1
*I *422:X O *D sky130_fd_sc_hd__and2_4
*CAP
1 *521:CIN 0.000560901
2 *422:X 0.000560901
3 *521:CIN *399:B 2.79471e-05
4 *521:CIN *428:B 0.000227449
5 *521:CIN *522:CIN 0.000205681
6 *521:CIN *551:B 6.50727e-05
7 *521:CIN *555:B 0
8 *521:CIN *333:45 2.53624e-06
9 *521:CIN *337:22 6.93171e-05
10 *521:CIN *338:62 0.000149643
11 *521:CIN *364:10 0.000267791
12 *521:A *521:CIN 9.96342e-05
13 *521:B *521:CIN 0
*RES
1 *422:X *521:CIN 45.387 
*END

*D_NET *193 0.000423067
*CONN
*I *523:B I *D sky130_fd_sc_hd__fa_1
*I *404:X O *D sky130_fd_sc_hd__and2_1
*CAP
1 *523:B 0.000106211
2 *404:X 0.000106211
3 *523:B *545:A 1.21461e-06
4 *527:A *523:B 6.27782e-05
5 *9:30 *523:B 0.000146652
*RES
1 *404:X *523:B 21.635 
*END

*D_NET *194 0.000500413
*CONN
*I *505:B I *D sky130_fd_sc_hd__fa_1
*I *450:X O *D sky130_fd_sc_hd__and2_1
*CAP
1 *505:B 0.000209588
2 *450:X 0.000209588
3 *505:B *349:23 4.844e-05
4 *505:B *349:34 3.27973e-05
*RES
1 *450:X *505:B 23.8975 
*END

*D_NET *195 0.00133345
*CONN
*I *508:B I *D sky130_fd_sc_hd__fa_1
*I *379:X O *D sky130_fd_sc_hd__and2_1
*CAP
1 *508:B 0.000305429
2 *379:X 0.000305429
3 *508:B *462:B 1.22289e-05
4 *508:B *528:B 0.000141321
5 *508:B *545:A 2.30999e-05
6 *508:B *545:B 0.000101281
7 *508:B *266:22 0.000254295
8 *508:A *508:B 2.03156e-05
9 *515:B *508:B 1.78514e-05
10 *528:A *508:B 0.000126335
11 *11:14 *508:B 2.58616e-05
*RES
1 *379:X *508:B 27.8638 
*END

*D_NET *196 0.000489809
*CONN
*I *511:A I *D sky130_fd_sc_hd__fa_1
*I *375:X O *D sky130_fd_sc_hd__and2_1
*CAP
1 *511:A 0.000144519
2 *375:X 0.000144519
3 *511:A *529:B 1.05272e-06
4 *685:A *511:A 6.64392e-05
5 *8:23 *511:A 0.00013328
*RES
1 *375:X *511:A 21.635 
*END

*D_NET *197 0.00130133
*CONN
*I *514:B I *D sky130_fd_sc_hd__fa_1
*I *413:X O *D sky130_fd_sc_hd__and2_1
*CAP
1 *514:B 0.00043306
2 *413:X 0.00043306
3 *514:B *497:CIN 3.76464e-05
4 *514:B *223:22 0.000152146
5 *514:B *336:32 0.000112756
6 *377:B *514:B 5.84419e-05
7 *513:A *514:B 4.74657e-05
8 *16:59 *514:B 2.67514e-05
*RES
1 *413:X *514:B 28.8337 
*END

*D_NET *198 0.000749531
*CONN
*I *496:CIN I *D sky130_fd_sc_hd__fa_1
*I *376:X O *D sky130_fd_sc_hd__and2_1
*CAP
1 *496:CIN 0.00024943
2 *376:X 0.00024943
3 *496:CIN *376:A 9.37259e-05
4 *5:8 *496:CIN 0
5 *15:58 *496:CIN 0.000156946
*RES
1 *376:X *496:CIN 32.2721 
*END

*D_NET *199 0.00167339
*CONN
*I *498:B I *D sky130_fd_sc_hd__fa_1
*I *398:X O *D sky130_fd_sc_hd__and2_1
*CAP
1 *498:B 0.000230791
2 *398:X 0.000230791
3 *498:B *400:B 3.11366e-05
4 *498:B *488:B 6.27782e-05
5 *498:B *498:CIN 0.000165062
6 *498:B *499:CIN 3.09308e-05
7 *498:B *329:18 0.00015901
8 *398:A *498:B 2.84892e-05
9 *488:A *498:B 1.00766e-05
10 *6:23 *498:B 4.89392e-05
11 *16:46 *498:B 0.000675391
*RES
1 *398:X *498:B 20.0639 
*END

*D_NET *200 0.00200818
*CONN
*I *500:A I *D sky130_fd_sc_hd__fa_1
*I *407:X O *D sky130_fd_sc_hd__and2_1
*CAP
1 *500:A 0.000702927
2 *407:X 0.000702927
3 *500:A *543:B 3.56986e-05
4 *500:A *613:A 6.08467e-05
5 *500:A *217:16 0.000131232
6 *500:A *331:8 4.91225e-06
7 *500:A *331:12 1.5006e-05
8 *376:B *500:A 1.65872e-05
9 *499:A *500:A 7.14746e-05
10 *5:8 *500:A 0
11 *6:67 *500:A 0.000223413
12 *16:66 *500:A 4.31539e-05
*RES
1 *407:X *500:A 31.2871 
*END

*D_NET *201 0.000819115
*CONN
*I *505:CIN I *D sky130_fd_sc_hd__fa_1
*I *402:X O *D sky130_fd_sc_hd__and2_1
*CAP
1 *505:CIN 0.000347997
2 *402:X 0.000347997
3 *505:CIN *330:47 0
4 *505:CIN *349:23 6.58435e-05
5 *505:A *505:CIN 2.94933e-05
6 *676:A *505:CIN 2.23259e-05
7 *9:6 *505:CIN 5.45795e-06
*RES
1 *402:X *505:CIN 35.0395 
*END

*D_NET *202 0.00233446
*CONN
*I *508:CIN I *D sky130_fd_sc_hd__fa_1
*I *414:X O *D sky130_fd_sc_hd__and2_1
*CAP
1 *508:CIN 0.000526925
2 *414:X 0.000526925
3 *508:CIN *462:B 2.44579e-05
4 *508:CIN *528:CIN 0.000577394
5 *508:CIN *545:B 0.000160617
6 *508:CIN *266:22 0.00011882
7 *402:A *508:CIN 4.58003e-05
8 *414:B *508:CIN 2.652e-05
9 *508:A *508:CIN 0.000272995
10 *510:A *508:CIN 3.04816e-05
11 *512:CIN *508:CIN 2.352e-05
*RES
1 *414:X *508:CIN 45.729 
*END

*D_NET *203 0.0010297
*CONN
*I *501:B I *D sky130_fd_sc_hd__fa_1
*I *465:X O *D sky130_fd_sc_hd__and2_4
*CAP
1 *501:B 0.000234671
2 *465:X 0.000234671
3 *501:B *428:B 0.000169093
4 *501:B *465:A 7.34948e-06
5 *501:B *337:22 2.65017e-05
6 *501:B *338:40 0.000273292
7 *501:B *361:14 8.41174e-05
*RES
1 *465:X *501:B 25.3751 
*END

*D_NET *204 0.000412393
*CONN
*I *511:B I *D sky130_fd_sc_hd__fa_1
*I *365:X O *D sky130_fd_sc_hd__and2_1
*CAP
1 *511:B 0.000128097
2 *365:X 0.000128097
3 *511:B *511:CIN 0
4 *365:B *511:B 0.000156199
*RES
1 *365:X *511:B 21.635 
*END

*D_NET *205 0.000554267
*CONN
*I *515:CIN I *D sky130_fd_sc_hd__fa_1
*I *403:X O *D sky130_fd_sc_hd__and2_1
*CAP
1 *515:CIN 0.000185514
2 *403:X 0.000185514
3 *515:CIN *403:B 0.000118166
4 *515:CIN *335:14 6.50727e-05
5 *389:B1 *515:CIN 0
6 *7:23 *515:CIN 0
*RES
1 *403:X *515:CIN 31.1629 
*END

*D_NET *206 0.00144901
*CONN
*I *497:B I *D sky130_fd_sc_hd__fa_1
*I *477:X O *D sky130_fd_sc_hd__and2_1
*CAP
1 *497:B 0.000433013
2 *477:X 0.000433013
3 *497:B *497:CIN 3.50632e-06
4 *497:A *497:B 0.000579482
*RES
1 *477:X *497:B 16.9774 
*END

*D_NET *207 0.00104342
*CONN
*I *498:CIN I *D sky130_fd_sc_hd__fa_1
*I *400:X O *D sky130_fd_sc_hd__and2_1
*CAP
1 *498:CIN 0.000277159
2 *400:X 0.000277159
3 *498:CIN *400:B 0.000112361
4 *498:CIN *405:A 5.03545e-06
5 *498:CIN *499:CIN 1.96905e-05
6 *498:CIN *347:25 1.52821e-05
7 *488:A *498:CIN 1.02267e-05
8 *498:A *498:CIN 6.08467e-05
9 *498:B *498:CIN 0.000165062
10 *16:40 *498:CIN 3.9749e-05
11 *16:46 *498:CIN 6.08467e-05
*RES
1 *400:X *498:CIN 35.3354 
*END

*D_NET *208 0.00113361
*CONN
*I *500:B I *D sky130_fd_sc_hd__fa_1
*I *405:X O *D sky130_fd_sc_hd__and2_1
*CAP
1 *500:B 0.000201214
2 *405:X 0.000201214
3 *500:B *500:CIN 0.000148114
4 *500:B *543:B 0
5 *500:B *329:26 0.000144546
6 *498:A *500:B 0.000107496
7 *15:8 *500:B 0.000331029
*RES
1 *405:X *500:B 25.5117 
*END

*D_NET *209 0.00284615
*CONN
*I *518:B I *D sky130_fd_sc_hd__fa_1
*I *412:X O *D sky130_fd_sc_hd__and2_1
*CAP
1 *518:B 0.00101981
2 *412:X 0.00101981
3 *518:B *497:CIN 5.39512e-05
4 *518:B *499:CIN 5.60914e-05
5 *518:B *516:B 1.58065e-05
6 *518:B *614:A 4.43464e-05
7 *518:B *623:A 8.92568e-06
8 *518:B *336:40 6.27782e-05
9 *487:A *518:B 8.42523e-05
10 *516:A *518:B 0.000102546
11 *518:A *518:B 5.88662e-05
12 *543:A *518:B 0.000318969
*RES
1 *412:X *518:B 43.628 
*END

*D_NET *210 0.0017935
*CONN
*I *545:A I *D sky130_fd_sc_hd__ha_1
*I *489:X O *D sky130_fd_sc_hd__and2_1
*CAP
1 *545:A 0.000649314
2 *489:X 0.000649314
3 *545:A *526:CIN 0
4 *545:A *545:B 5.23435e-05
5 *545:A *266:22 0
6 *545:A *348:12 0.00018078
7 *489:A *545:A 4.43309e-05
8 *508:B *545:A 2.30999e-05
9 *523:B *545:A 1.21461e-06
10 *526:A *545:A 0.000121712
11 *527:A *545:A 9.80242e-07
12 *9:12 *545:A 7.04109e-05
*RES
1 *489:X *545:A 43.0687 
*END

*D_NET *211 0.00089351
*CONN
*I *511:CIN I *D sky130_fd_sc_hd__fa_1
*I *483:X O *D sky130_fd_sc_hd__and2_1
*CAP
1 *511:CIN 0.000335081
2 *483:X 0.000335081
3 *483:A *511:CIN 5.056e-06
4 *483:B *511:CIN 4.99786e-05
5 *511:B *511:CIN 0
6 *11:24 *511:CIN 0.000168313
*RES
1 *483:X *511:CIN 34.7959 
*END

*D_NET *212 0.000865191
*CONN
*I *515:A I *D sky130_fd_sc_hd__fa_1
*I *424:X O *D sky130_fd_sc_hd__and2_1
*CAP
1 *515:A 0.000276385
2 *424:X 0.000276385
3 *515:B *515:A 1.04731e-05
4 *530:CIN *515:A 0.000301947
*RES
1 *424:X *515:A 14.2044 
*END

*D_NET *213 0.000751705
*CONN
*I *516:B I *D sky130_fd_sc_hd__fa_1
*I *425:X O *D sky130_fd_sc_hd__and2_1
*CAP
1 *516:B 0.000199778
2 *425:X 0.000199778
3 *516:B *614:A 0.000217951
4 *516:B *329:18 0
5 *516:B *347:10 0.000101148
6 *516:A *516:B 1.72448e-05
7 *518:B *516:B 1.58065e-05
*RES
1 *425:X *516:B 24.0719 
*END

*D_NET *214 0.000821467
*CONN
*I *502:A I *D sky130_fd_sc_hd__fa_1
*I *378:X O *D sky130_fd_sc_hd__and2_4
*CAP
1 *502:A 0.000257072
2 *378:X 0.000257072
3 *502:A *378:B 6.27718e-05
4 *502:A *504:B 0.000155038
5 *502:A *617:A 8.9514e-05
6 *502:A *332:25 0
*RES
1 *378:X *502:A 25.7876 
*END

*D_NET *215 0.00100162
*CONN
*I *499:B I *D sky130_fd_sc_hd__fa_1
*I *427:X O *D sky130_fd_sc_hd__and2_1
*CAP
1 *499:B 0.000316768
2 *427:X 0.000316768
3 *499:B *427:B 2.1883e-05
4 *499:B *499:CIN 5.69771e-05
5 *498:A *499:B 0.000115934
6 *499:A *499:B 0.000173288
*RES
1 *427:X *499:B 17.1462 
*END

*D_NET *216 0.000622696
*CONN
*I *500:CIN I *D sky130_fd_sc_hd__fa_1
*I *426:X O *D sky130_fd_sc_hd__and2_1
*CAP
1 *500:CIN 0.000168206
2 *426:X 0.000168206
3 *500:CIN *543:B 1.79807e-05
4 *500:CIN *613:A 0.000107496
5 *500:B *500:CIN 0.000148114
6 *15:8 *500:CIN 1.2693e-05
*RES
1 *426:X *500:CIN 31.854 
*END

*D_NET *217 0.00292496
*CONN
*I *518:CIN I *D sky130_fd_sc_hd__fa_1
*I *488:X O *D sky130_fd_sc_hd__and2_1
*CAP
1 *518:CIN 0
2 *488:X 0.000894022
3 *217:16 0.000894022
4 *217:16 *519:CIN 0.00021011
5 *217:16 *543:B 3.24787e-05
6 *499:A *217:16 0.000119382
7 *500:A *217:16 0.000131232
8 *519:A *217:16 6.08467e-05
9 *5:8 *217:16 0
10 *6:10 *217:16 1.96679e-05
11 *15:8 *217:16 0.000447528
12 *15:21 *217:16 0.000115668
*RES
1 *488:X *217:16 42.0584 
2 *217:16 *518:CIN 9.24915 
*END

*D_NET *218 0.00246715
*CONN
*I *520:CIN I *D sky130_fd_sc_hd__fa_1
*I *487:X O *D sky130_fd_sc_hd__and2_1
*CAP
1 *520:CIN 0.00102623
2 *487:X 0.00102623
3 *520:CIN *487:B 1.03403e-05
4 *520:CIN *622:A 2.41274e-06
5 *520:CIN *253:14 3.62662e-05
6 *519:A *520:CIN 0.000317828
7 *519:B *520:CIN 2.22923e-05
8 *520:A *520:CIN 2.55493e-05
*RES
1 *487:X *520:CIN 44.4734 
*END

*D_NET *219 0.00139476
*CONN
*I *503:A I *D sky130_fd_sc_hd__fa_2
*I *397:X O *D sky130_fd_sc_hd__and2_4
*CAP
1 *503:A 0.00027953
2 *397:X 0.00027953
3 *503:A *220:16 8.43433e-05
4 *507:B *503:A 0.000205332
5 *1:10 *503:A 0.000375506
6 *1:12 *503:A 0.000144659
7 *3:23 *503:A 2.58616e-05
*RES
1 *397:X *503:A 28.9181 
*END

*D_NET *220 0.00447928
*CONN
*I *506:CIN I *D sky130_fd_sc_hd__fa_2
*I *476:X O *D sky130_fd_sc_hd__and2_4
*CAP
1 *506:CIN 7.24733e-05
2 *476:X 0.00097113
3 *220:16 0.0010436
4 *220:16 *507:CIN 0.000253529
5 *220:16 *618:A 7.86825e-06
6 *220:16 *236:16 4.53935e-05
7 *220:16 *330:32 8.2026e-05
8 *476:B *220:16 6.92571e-05
9 *503:A *220:16 8.43433e-05
10 *506:A *220:16 0.000825333
11 *507:A *220:16 0.000156823
12 *507:B *220:16 0.000113646
13 *4:12 *220:16 0.000480836
14 *12:12 *220:16 0.000169817
15 *12:18 *506:CIN 0.000103198
*RES
1 *476:X *220:16 49.4956 
2 *220:16 *506:CIN 15.4793 
*END

*D_NET *221 0.000941463
*CONN
*I *555:B I *D sky130_fd_sc_hd__ha_1
*I *401:X O *D sky130_fd_sc_hd__and2_1
*CAP
1 *555:B 0.000435857
2 *401:X 0.000435857
3 *555:B *338:40 0
4 *401:B *555:B 1.43698e-05
5 *521:CIN *555:B 0
6 *555:A *555:B 0
7 *631:A *555:B 5.53789e-05
*RES
1 *401:X *555:B 36.4246 
*END

*D_NET *222 0.000403094
*CONN
*I *550:B I *D sky130_fd_sc_hd__ha_4
*I *399:X O *D sky130_fd_sc_hd__and2_1
*CAP
1 *550:B 0.000151578
2 *399:X 0.000151578
3 *550:B *399:A 0
4 *550:B *406:A 9.89388e-06
5 *550:B *551:B 2.4968e-05
6 *550:A *550:B 1.69371e-05
7 *552:A *550:B 4.81381e-05
*RES
1 *399:X *550:B 30.8842 
*END

*D_NET *223 0.00563864
*CONN
*I *497:CIN I *D sky130_fd_sc_hd__fa_1
*I *496:SUM O *D sky130_fd_sc_hd__fa_1
*CAP
1 *497:CIN 0.00149007
2 *496:SUM 0.000467401
3 *223:22 0.00195747
4 *497:CIN *427:A 5.481e-05
5 *497:CIN *514:CIN 7.5686e-05
6 *497:CIN *516:CIN 7.54654e-05
7 *497:CIN *347:25 3.82887e-05
8 *223:22 *461:A 7.50722e-05
9 *223:22 *331:8 0.000111708
10 *376:B *223:22 7.52053e-05
11 *436:B *223:22 8.17887e-05
12 *464:B *223:22 0
13 *497:A *497:CIN 6.94375e-05
14 *497:B *497:CIN 3.50632e-06
15 *513:A *497:CIN 0.000150511
16 *513:B *497:CIN 1.37189e-05
17 *513:CIN *497:CIN 1.12354e-05
18 *514:B *497:CIN 3.76464e-05
19 *514:B *223:22 0.000152146
20 *518:B *497:CIN 5.39512e-05
21 *15:58 *223:22 5.41227e-05
22 *15:62 *223:22 0.000254405
23 *16:59 *223:22 0.000334994
*RES
1 *496:SUM *223:22 45.7224 
2 *223:22 *497:CIN 48.7993 
*END

*D_NET *224 0.000463489
*CONN
*I *516:CIN I *D sky130_fd_sc_hd__fa_1
*I *497:SUM O *D sky130_fd_sc_hd__fa_1
*CAP
1 *516:CIN 0.000166294
2 *497:SUM 0.000166294
3 *516:CIN *614:A 3.75405e-05
4 *497:A *516:CIN 1.78942e-05
5 *497:CIN *516:CIN 7.54654e-05
*RES
1 *497:SUM *516:CIN 31.7147 
*END

*D_NET *225 0.00143988
*CONN
*I *499:CIN I *D sky130_fd_sc_hd__fa_1
*I *498:SUM O *D sky130_fd_sc_hd__fa_1
*CAP
1 *499:CIN 0.000613239
2 *498:SUM 0.000613239
3 *499:CIN *546:B 4.41541e-05
4 *499:CIN *614:A 0
5 *498:A *499:CIN 5.55683e-06
6 *498:B *499:CIN 3.09308e-05
7 *498:CIN *499:CIN 1.96905e-05
8 *499:B *499:CIN 5.69771e-05
9 *518:B *499:CIN 5.60914e-05
*RES
1 *498:SUM *499:CIN 38.1235 
*END

*D_NET *226 0.00117617
*CONN
*I *546:B I *D sky130_fd_sc_hd__ha_1
*I *499:SUM O *D sky130_fd_sc_hd__fa_1
*CAP
1 *546:B 0.000512551
2 *499:SUM 0.000512551
3 *546:B *614:A 2.60984e-05
4 *498:A *546:B 2.52592e-05
5 *499:CIN *546:B 4.41541e-05
6 *549:A *546:B 5.55532e-05
*RES
1 *499:SUM *546:B 39.6185 
*END

*D_NET *227 0.00289576
*CONN
*I *543:B I *D sky130_fd_sc_hd__ha_1
*I *500:SUM O *D sky130_fd_sc_hd__fa_1
*CAP
1 *543:B 0.000830615
2 *500:SUM 0.000830615
3 *543:B *426:A 5.41227e-05
4 *543:B *613:A 4.27003e-05
5 *543:B *615:A 2.65667e-05
6 *543:B *623:A 5.0715e-05
7 *543:B *329:34 0.000373061
8 *487:A *543:B 2.54369e-05
9 *500:A *543:B 3.56986e-05
10 *500:B *543:B 0
11 *500:CIN *543:B 1.79807e-05
12 *543:A *543:B 0.000171273
13 *8:12 *543:B 0.000349736
14 *16:25 *543:B 5.47561e-05
15 *217:16 *543:B 3.24787e-05
*RES
1 *500:SUM *543:B 48.6609 
*END

*D_NET *228 0.000380655
*CONN
*I *548:B I *D sky130_fd_sc_hd__ha_1
*I *543:SUM O *D sky130_fd_sc_hd__ha_1
*CAP
1 *548:B 0.000185735
2 *543:SUM 0.000185735
3 *519:B *548:B 9.18559e-06
*RES
1 *543:SUM *548:B 22.5493 
*END

*D_NET *229 0.00287817
*CONN
*I *522:CIN I *D sky130_fd_sc_hd__fa_1
*I *501:SUM O *D sky130_fd_sc_hd__fa_1
*CAP
1 *522:CIN 0.000719823
2 *501:SUM 0.000719823
3 *522:CIN *408:A 0.000157107
4 *522:CIN *408:B 2.08274e-05
5 *522:CIN *422:A 0.000194241
6 *522:CIN *537:B 0.000357952
7 *501:CIN *522:CIN 0.000404059
8 *521:CIN *522:CIN 0.000205681
9 *537:A *522:CIN 9.86581e-05
*RES
1 *501:SUM *522:CIN 40.6101 
*END

*D_NET *230 0.00144839
*CONN
*I *544:B I *D sky130_fd_sc_hd__ha_4
*I *502:SUM O *D sky130_fd_sc_hd__fa_1
*CAP
1 *544:B 0.000452981
2 *502:SUM 0.000452981
3 *544:B *616:A 0
4 *544:B *361:12 0.000542423
*RES
1 *502:SUM *544:B 40.8558 
*END

*D_NET *231 0.0015685
*CONN
*I *523:CIN I *D sky130_fd_sc_hd__fa_1
*I *544:SUM O *D sky130_fd_sc_hd__ha_4
*CAP
1 *523:CIN 0.00037819
2 *544:SUM 0.00037819
3 *523:CIN *431:A 0.000142909
4 *523:CIN *459:A 0.000364109
5 *523:CIN *459:B 1.88563e-05
6 *523:CIN *524:CIN 8.21761e-06
7 *523:CIN *330:58 2.46803e-05
8 *523:CIN *332:31 4.04935e-05
9 *505:A *523:CIN 0.000212852
*RES
1 *544:SUM *523:CIN 38.3727 
*END

*D_NET *232 0.00212925
*CONN
*I *504:B I *D sky130_fd_sc_hd__fa_2
*I *503:SUM O *D sky130_fd_sc_hd__fa_2
*CAP
1 *504:B 0.000785573
2 *503:SUM 0.000785573
3 *504:B *525:CIN 0
4 *504:B *617:A 5.32652e-05
5 *504:B *698:A 0
6 *504:B *332:25 0
7 *504:B *351:8 0
8 *504:B *361:12 0.00011359
9 *502:A *504:B 0.000155038
10 *556:A *504:B 9.92378e-06
11 *10:6 *504:B 0.000120742
12 *10:8 *504:B 0.000105546
*RES
1 *503:SUM *504:B 40.3848 
*END

*D_NET *233 0.0018155
*CONN
*I *525:CIN I *D sky130_fd_sc_hd__fa_2
*I *504:SUM O *D sky130_fd_sc_hd__fa_2
*CAP
1 *525:CIN 0.000372721
2 *504:SUM 0.000372721
3 *525:CIN *465:B 0.000362718
4 *525:CIN *617:A 0
5 *525:CIN *262:26 6.13538e-05
6 *525:CIN *337:22 0.000570089
7 *525:CIN *338:16 5.24884e-06
8 *504:B *525:CIN 0
9 *675:A *525:CIN 7.06474e-05
*RES
1 *504:SUM *525:CIN 42.9325 
*END

*D_NET *234 0.00112961
*CONN
*I *525:B I *D sky130_fd_sc_hd__fa_2
*I *505:SUM O *D sky130_fd_sc_hd__fa_1
*CAP
1 *525:B 0.000263499
2 *505:SUM 0.000263499
3 *525:B *524:CIN 0
4 *525:B *262:26 0.000203397
5 *525:B *338:16 9.27042e-05
6 *525:B *339:10 0.000113096
7 *525:B *339:28 0.000193411
*RES
1 *505:SUM *525:B 26.5365 
*END

*D_NET *235 0.000915485
*CONN
*I *507:CIN I *D sky130_fd_sc_hd__fa_2
*I *506:SUM O *D sky130_fd_sc_hd__fa_2
*CAP
1 *507:CIN 0.000203117
2 *506:SUM 0.000203117
3 *507:CIN *236:16 0.000255722
4 *220:16 *507:CIN 0.000253529
*RES
1 *506:SUM *507:CIN 34.3824 
*END

*D_NET *236 0.00493669
*CONN
*I *526:B I *D sky130_fd_sc_hd__fa_1
*I *507:SUM O *D sky130_fd_sc_hd__fa_2
*CAP
1 *526:B 0.000134778
2 *507:SUM 0.00150732
3 *236:16 0.0016421
4 *526:B *526:CIN 0.000341769
5 *236:16 *379:B 2.65667e-05
6 *236:16 *332:25 2.49496e-05
7 *236:16 *333:8 0.000244155
8 *236:16 *333:17 0.000109288
9 *236:16 *348:6 9.14834e-05
10 *429:A *236:16 0.000111708
11 *489:B *526:B 0
12 *504:A *236:16 8.62625e-06
13 *507:CIN *236:16 0.000255722
14 *512:B *526:B 0.000148129
15 *674:A *236:16 6.08697e-06
16 *1:10 *236:16 5.92192e-05
17 *11:14 *236:16 0.000124315
18 *11:24 *236:16 8.21761e-06
19 *12:12 *236:16 3.87022e-06
20 *12:51 *236:16 4.29946e-05
21 *220:16 *236:16 4.53935e-05
*RES
1 *507:SUM *236:16 48.3125 
2 *236:16 *526:B 14.5693 
*END

*D_NET *237 0.00178229
*CONN
*I *545:B I *D sky130_fd_sc_hd__ha_1
*I *508:SUM O *D sky130_fd_sc_hd__fa_1
*CAP
1 *545:B 0.000530303
2 *508:SUM 0.000530303
3 *508:B *545:B 0.000101281
4 *508:CIN *545:B 0.000160617
5 *515:B *545:B 9.90332e-05
6 *528:A *545:B 0.000126335
7 *545:A *545:B 5.23435e-05
8 *12:24 *545:B 0.000182074
*RES
1 *508:SUM *545:B 40.3363 
*END

*D_NET *238 0.00147407
*CONN
*I *526:CIN I *D sky130_fd_sc_hd__fa_1
*I *545:SUM O *D sky130_fd_sc_hd__ha_1
*CAP
1 *526:CIN 0.000445537
2 *545:SUM 0.000445537
3 *526:CIN *348:12 0.000106233
4 *489:B *526:CIN 2.59895e-05
5 *512:B *526:CIN 8.05154e-05
6 *526:B *526:CIN 0.000341769
7 *545:A *526:CIN 0
8 *12:24 *526:CIN 2.84892e-05
*RES
1 *545:SUM *526:CIN 40.7942 
*END

*D_NET *239 0.00103244
*CONN
*I *510:CIN I *D sky130_fd_sc_hd__fa_2
*I *509:SUM O *D sky130_fd_sc_hd__fa_1
*CAP
1 *510:CIN 0.000425604
2 *509:SUM 0.000425604
3 *510:CIN *528:B 2.34064e-05
4 *510:B *510:CIN 0
5 *686:A *510:CIN 7.20759e-05
6 *5:51 *510:CIN 8.57449e-05
*RES
1 *509:SUM *510:CIN 38.2282 
*END

*D_NET *240 0.00169168
*CONN
*I *528:B I *D sky130_fd_sc_hd__fa_2
*I *510:SUM O *D sky130_fd_sc_hd__fa_2
*CAP
1 *528:B 0.000685926
2 *510:SUM 0.000685926
3 *528:B *528:CIN 7.10734e-05
4 *528:B *266:22 1.93109e-05
5 *508:A *528:B 6.47123e-05
6 *508:B *528:B 0.000141321
7 *510:A *528:B 0
8 *510:CIN *528:B 2.34064e-05
9 *515:B *528:B 0
*RES
1 *510:SUM *528:B 31.6231 
*END

*D_NET *241 0.000619546
*CONN
*I *512:A I *D sky130_fd_sc_hd__fa_2
*I *511:SUM O *D sky130_fd_sc_hd__fa_1
*CAP
1 *512:A 0.000157765
2 *511:SUM 0.000157765
3 *483:A *512:A 7.92757e-06
4 *489:B *512:A 3.20069e-06
5 *512:B *512:A 0.00017733
6 *529:A *512:A 0.000101133
7 *8:23 *512:A 9.22013e-06
8 *11:24 *512:A 5.20546e-06
*RES
1 *511:SUM *512:A 22.4134 
*END

*D_NET *242 0.00208789
*CONN
*I *528:CIN I *D sky130_fd_sc_hd__fa_2
*I *512:SUM O *D sky130_fd_sc_hd__fa_2
*CAP
1 *528:CIN 0.000515625
2 *512:SUM 0.000515625
3 *528:CIN *462:B 9.02099e-06
4 *528:CIN *266:22 2.08274e-05
5 *508:CIN *528:CIN 0.000577394
6 *510:A *528:CIN 0.000210184
7 *512:CIN *528:CIN 0.000157802
8 *528:B *528:CIN 7.10734e-05
9 *686:A *528:CIN 1.03403e-05
*RES
1 *512:SUM *528:CIN 42.7466 
*END

*D_NET *243 0.00149089
*CONN
*I *514:CIN I *D sky130_fd_sc_hd__fa_1
*I *513:SUM O *D sky130_fd_sc_hd__fa_1
*CAP
1 *514:CIN 0.000558805
2 *513:SUM 0.000558805
3 *514:CIN *461:A 6.08467e-05
4 *464:B *514:CIN 1.82696e-05
5 *497:CIN *514:CIN 7.5686e-05
6 *513:CIN *514:CIN 0.000158451
7 *6:10 *514:CIN 0
8 *6:23 *514:CIN 6.00269e-05
*RES
1 *513:SUM *514:CIN 40.6855 
*END

*D_NET *244 0.0040806
*CONN
*I *529:B I *D sky130_fd_sc_hd__fa_1
*I *514:SUM O *D sky130_fd_sc_hd__fa_1
*CAP
1 *529:B 0.000406708
2 *514:SUM 0.00122329
3 *244:14 0.00163
4 *529:B *530:B 2.26713e-06
5 *437:B *244:14 0.000138468
6 *446:A *244:14 1.84293e-05
7 *509:B *244:14 6.58857e-05
8 *510:B *244:14 0
9 *511:A *529:B 1.05272e-06
10 *512:B *244:14 7.05879e-05
11 *513:B *244:14 0
12 *515:B *244:14 0
13 *529:A *529:B 0.000132294
14 *672:A *244:14 1.41976e-05
15 *685:A *529:B 6.36477e-05
16 *6:40 *529:B 2.76455e-05
17 *8:23 *529:B 0
18 *8:23 *244:14 0
19 *12:24 *244:14 0.000207308
20 *15:75 *244:14 7.88219e-05
*RES
1 *514:SUM *244:14 46.0362 
2 *244:14 *529:B 16.2025 
*END

*D_NET *245 0.000675274
*CONN
*I *529:CIN I *D sky130_fd_sc_hd__fa_1
*I *515:SUM O *D sky130_fd_sc_hd__fa_1
*CAP
1 *529:CIN 0.000187873
2 *515:SUM 0.000187873
3 *529:CIN *530:B 2.39228e-05
4 *530:CIN *529:CIN 0.000188785
5 *7:23 *529:CIN 8.68212e-05
*RES
1 *515:SUM *529:CIN 33.2392 
*END

*D_NET *246 0.00144234
*CONN
*I *517:CIN I *D sky130_fd_sc_hd__fa_1
*I *516:SUM O *D sky130_fd_sc_hd__fa_1
*CAP
1 *517:CIN 0.000511597
2 *516:SUM 0.000511597
3 *517:CIN *403:A 7.41203e-05
4 *517:CIN *329:10 0
5 *517:CIN *347:10 5.88662e-05
6 *389:B1 *517:CIN 5.11107e-05
7 *517:A *517:CIN 2.42189e-05
8 *517:B *517:CIN 0.000210832
*RES
1 *516:SUM *517:CIN 40.3576 
*END

*D_NET *247 0.000216665
*CONN
*I *531:B I *D sky130_fd_sc_hd__ha_4
*I *517:SUM O *D sky130_fd_sc_hd__fa_1
*CAP
1 *531:B 5.99104e-05
2 *517:SUM 5.99104e-05
3 *517:B *531:B 9.68437e-05
*RES
1 *517:SUM *531:B 29.3303 
*END

*D_NET *248 0.000406941
*CONN
*I *547:B I *D sky130_fd_sc_hd__ha_1
*I *546:SUM O *D sky130_fd_sc_hd__ha_1
*CAP
1 *547:B 0.00018931
2 *546:SUM 0.00018931
3 *533:A *547:B 2.8322e-05
*RES
1 *546:SUM *547:B 30.7476 
*END

*D_NET *249 0.00119709
*CONN
*I *538:B I *D sky130_fd_sc_hd__ha_1
*I *547:SUM O *D sky130_fd_sc_hd__ha_1
*CAP
1 *538:B 0.00048879
2 *547:SUM 0.00048879
3 *390:C1 *538:B 2.06701e-05
4 *442:B1 *538:B 2.93493e-05
5 *49:10 *538:B 0.000167076
6 *72:8 *538:B 2.41274e-06
7 *77:10 *538:B 0
8 *77:21 *538:B 0
*RES
1 *547:SUM *538:B 39.3608 
*END

*D_NET *250 0.000405445
*CONN
*I *549:B I *D sky130_fd_sc_hd__ha_1
*I *548:SUM O *D sky130_fd_sc_hd__ha_1
*CAP
1 *549:B 0.000188044
2 *548:SUM 0.000188044
3 *535:A *549:B 2.69435e-05
4 *549:A *549:B 2.41274e-06
5 *630:A *549:B 0
*RES
1 *548:SUM *549:B 30.7476 
*END

*D_NET *251 0.000504535
*CONN
*I *533:B I *D sky130_fd_sc_hd__ha_1
*I *549:SUM O *D sky130_fd_sc_hd__ha_1
*CAP
1 *533:B 0.000101817
2 *549:SUM 0.000101817
3 *445:B *533:B 0.000149244
4 *63:18 *533:B 2.41274e-06
5 *75:14 *533:B 0.000149244
*RES
1 *549:SUM *533:B 30.8842 
*END

*D_NET *252 0.00129046
*CONN
*I *519:CIN I *D sky130_fd_sc_hd__fa_1
*I *518:SUM O *D sky130_fd_sc_hd__fa_1
*CAP
1 *519:CIN 0.000540176
2 *518:SUM 0.000540176
3 *487:A *519:CIN 0
4 *519:B *519:CIN 0
5 *217:16 *519:CIN 0.00021011
*RES
1 *518:SUM *519:CIN 36.1543 
*END

*D_NET *253 0.00286409
*CONN
*I *535:B I *D sky130_fd_sc_hd__ha_1
*I *519:SUM O *D sky130_fd_sc_hd__fa_1
*CAP
1 *535:B 0
2 *519:SUM 0.00113345
3 *253:14 0.00113345
4 *253:14 P[15] 8.62625e-06
5 *393:B1 *253:14 2.00924e-05
6 *519:A *253:14 3.25584e-05
7 *519:B *253:14 0
8 *520:A *253:14 0.000151726
9 *520:CIN *253:14 3.62662e-05
10 *535:A *253:14 0.000347907
11 *548:A *253:14 0
12 *630:A *253:14 0
*RES
1 *519:SUM *253:14 41.4825 
2 *253:14 *535:B 9.24915 
*END

*D_NET *254 0.00150547
*CONN
*I *380:A I *D sky130_fd_sc_hd__inv_1
*I *520:SUM O *D sky130_fd_sc_hd__fa_1
*CAP
1 *380:A 0.000660124
2 *520:SUM 0.000660124
3 *445:B *380:A 5.7339e-05
4 *520:B *380:A 6.8575e-05
5 *63:18 *380:A 5.93083e-05
*RES
1 *520:SUM *380:A 29.9099 
*END

*D_NET *255 0.0034085
*CONN
*I *495:CIN I *D sky130_fd_sc_hd__fa_1
*I *534:B I *D sky130_fd_sc_hd__ha_1
*I *550:SUM O *D sky130_fd_sc_hd__ha_4
*CAP
1 *495:CIN 8.35406e-05
2 *534:B 0.000920735
3 *550:SUM 7.36066e-05
4 *255:6 0.00107788
5 *534:B *448:A 0
6 *534:B *449:B 0
7 *534:B *450:A 9.04726e-06
8 *534:B *262:26 7.92757e-06
9 *434:A *534:B 4.90829e-05
10 *495:B *495:CIN 1.61631e-05
11 *495:B *255:6 3.61993e-05
12 *522:B *534:B 0
13 *524:B *534:B 0.000120779
14 *527:CIN *534:B 0.000307806
15 *534:A *534:B 0.000114271
16 *551:A *534:B 0.000284948
17 *632:A *534:B 3.98606e-05
18 *9:30 *534:B 7.73705e-05
19 *41:16 *534:B 6.07621e-05
20 *144:14 *495:CIN 0.000128521
*RES
1 *550:SUM *255:6 11.0817 
2 *255:6 *534:B 44.9192 
3 *255:6 *495:CIN 12.8179 
*END

*D_NET *256 0.00227195
*CONN
*I *551:B I *D sky130_fd_sc_hd__ha_4
*I *521:SUM O *D sky130_fd_sc_hd__fa_1
*CAP
1 *551:B 0.000965821
2 *521:SUM 0.000965821
3 *551:B *399:B 0.000134473
4 *521:B *551:B 4.70402e-05
5 *521:CIN *551:B 6.50727e-05
6 *550:B *551:B 2.4968e-05
7 *145:12 *551:B 6.87578e-05
*RES
1 *521:SUM *551:B 38.8739 
*END

*D_NET *257 0.000705091
*CONN
*I *542:A I *D sky130_fd_sc_hd__ha_4
*I *551:SUM O *D sky130_fd_sc_hd__ha_4
*CAP
1 *542:A 9.65425e-05
2 *551:SUM 9.65425e-05
3 *57:14 *542:A 8.82765e-05
4 *144:14 *542:A 0.000423729
*RES
1 *551:SUM *542:A 23.1039 
*END

*D_NET *258 0.000575352
*CONN
*I *552:B I *D sky130_fd_sc_hd__ha_4
*I *522:SUM O *D sky130_fd_sc_hd__fa_1
*CAP
1 *552:B 0.000262976
2 *522:SUM 0.000262976
3 *552:B *435:B 4.94011e-05
*RES
1 *522:SUM *552:B 33.242 
*END

*D_NET *259 0.00366898
*CONN
*I *540:B I *D sky130_fd_sc_hd__ha_4
*I *552:SUM O *D sky130_fd_sc_hd__ha_4
*CAP
1 *540:B 0
2 *552:SUM 0.00166818
3 *259:14 0.00166818
4 *532:A *259:14 1.97124e-05
5 *540:A *259:14 0.000312913
6 *62:10 *259:14 0
*RES
1 *552:SUM *259:14 47.7252 
2 *259:14 *540:B 9.24915 
*END

*D_NET *260 0.00131507
*CONN
*I *524:CIN I *D sky130_fd_sc_hd__fa_1
*I *523:SUM O *D sky130_fd_sc_hd__fa_1
*CAP
1 *524:CIN 0.000423884
2 *523:SUM 0.000423884
3 *524:CIN *435:B 0.000111326
4 *524:CIN *449:B 0.000186445
5 *524:CIN *459:B 2.58757e-05
6 *524:CIN *339:28 0
7 *524:CIN *339:37 0
8 *524:CIN *349:34 0.000135439
9 *522:B *524:CIN 0
10 *523:CIN *524:CIN 8.21761e-06
11 *525:B *524:CIN 0
*RES
1 *523:SUM *524:CIN 38.4981 
*END

*D_NET *261 0.00251798
*CONN
*I *537:B I *D sky130_fd_sc_hd__ha_4
*I *524:SUM O *D sky130_fd_sc_hd__fa_1
*CAP
1 *537:B 0.000871811
2 *524:SUM 0.000871811
3 *537:B *339:37 6.65668e-05
4 *522:CIN *537:B 0.000357952
5 *524:A *537:B 0.000117376
6 *537:A *537:B 0.000218359
7 *47:6 *537:B 1.4106e-05
*RES
1 *524:SUM *537:B 46.5177 
*END

*D_NET *262 0.00521305
*CONN
*I *553:B I *D sky130_fd_sc_hd__ha_4
*I *525:SUM O *D sky130_fd_sc_hd__fa_2
*CAP
1 *553:B 0
2 *525:SUM 0.00177774
3 *262:26 0.00177774
4 *262:26 *448:A 0.000324151
5 *262:26 *448:B 0.000113197
6 *262:26 *338:16 0.000178236
7 *525:A *262:26 6.8479e-05
8 *525:B *262:26 0.000203397
9 *525:CIN *262:26 6.13538e-05
10 *527:CIN *262:26 7.28567e-06
11 *534:B *262:26 7.92757e-06
12 *541:B *262:26 0.000227177
13 *41:16 *262:26 0.000466373
*RES
1 *525:SUM *262:26 47.2515 
2 *262:26 *553:B 9.24915 
*END

*D_NET *263 0.0019037
*CONN
*I *532:B I *D sky130_fd_sc_hd__ha_4
*I *553:SUM O *D sky130_fd_sc_hd__ha_4
*CAP
1 *532:B 0.000449378
2 *553:SUM 0.000449378
3 *532:B *373:A1 0.000132367
4 *371:A1 *532:B 0.000127447
5 *532:A *532:B 0.000720986
6 *37:8 *532:B 2.41483e-05
*RES
1 *553:SUM *532:B 41.5554 
*END

*D_NET *264 0.000954278
*CONN
*I *527:B I *D sky130_fd_sc_hd__fa_1
*I *526:SUM O *D sky130_fd_sc_hd__fa_1
*CAP
1 *527:B 0.000294602
2 *526:SUM 0.000294602
3 *527:B *450:A 0.000178143
4 *527:B *541:A 3.00829e-05
5 *527:B *348:12 0.000122842
6 *489:B *527:B 0
7 *553:A *527:B 3.40066e-05
*RES
1 *526:SUM *527:B 26.6758 
*END

*D_NET *265 0.0008875
*CONN
*I *541:A I *D sky130_fd_sc_hd__ha_4
*I *527:SUM O *D sky130_fd_sc_hd__fa_1
*CAP
1 *541:A 0.000249659
2 *527:SUM 0.000249659
3 *495:A *541:A 2.24484e-05
4 *527:B *541:A 3.00829e-05
5 *527:CIN *541:A 2.85505e-05
6 *534:A *541:A 0.00014663
7 *553:A *541:A 6.27782e-05
8 *9:30 *541:A 0
9 *42:10 *541:A 8.33074e-05
10 *55:6 *541:A 1.43848e-05
*RES
1 *527:SUM *541:A 34.9296 
*END

*D_NET *266 0.00417756
*CONN
*I *554:B I *D sky130_fd_sc_hd__ha_4
*I *528:SUM O *D sky130_fd_sc_hd__fa_2
*CAP
1 *554:B 0.000198767
2 *528:SUM 0.00103234
3 *266:22 0.0012311
4 *266:22 *462:B 0.000133355
5 *402:A *266:22 1.41853e-05
6 *414:B *266:22 0.00020959
7 *508:B *266:22 0.000254295
8 *508:CIN *266:22 0.00011882
9 *526:A *266:22 0.00045267
10 *528:B *266:22 1.93109e-05
11 *528:CIN *266:22 2.08274e-05
12 *536:A *554:B 6.92705e-05
13 *545:A *266:22 0
14 *554:A *554:B 9.91731e-05
15 *7:40 *554:B 1.99642e-05
16 *7:40 *266:22 3.28424e-05
17 *9:12 *266:22 0.000271044
*RES
1 *528:SUM *266:22 46.002 
2 *266:22 *554:B 14.964 
*END

*D_NET *267 0.00055234
*CONN
*I *539:B I *D sky130_fd_sc_hd__ha_4
*I *554:SUM O *D sky130_fd_sc_hd__ha_4
*CAP
1 *539:B 0.000189133
2 *554:SUM 0.000189133
3 *539:B *304:14 0
4 *45:14 *539:B 0.000174074
*RES
1 *554:SUM *539:B 31.1629 
*END

*D_NET *268 0.00128176
*CONN
*I *530:B I *D sky130_fd_sc_hd__fa_1
*I *529:SUM O *D sky130_fd_sc_hd__fa_1
*CAP
1 *530:B 0.000568554
2 *529:SUM 0.000568554
3 *529:A *530:B 3.25052e-05
4 *529:B *530:B 2.26713e-06
5 *529:CIN *530:B 2.39228e-05
6 *530:CIN *530:B 8.59589e-05
*RES
1 *529:SUM *530:B 28.2875 
*END

*D_NET *269 0.00143676
*CONN
*I *536:B I *D sky130_fd_sc_hd__ha_4
*I *530:SUM O *D sky130_fd_sc_hd__fa_1
*CAP
1 *536:B 0.000475385
2 *530:SUM 0.000475385
3 *536:A *536:B 0
4 *7:23 *536:B 8.42523e-05
5 *7:40 *536:B 4.43395e-05
6 *45:14 *536:B 0.000357395
*RES
1 *530:SUM *536:B 40.8558 
*END
